* #variable= 640 #constraint= 376
* p=17; modulus=272; raw=False; threshold=1/16
* Semantic/proof scope is in README.md; no solver proof is included.
+1 x1 +2 x2 +4 x3 +8 x4 -1 x5 >= 0 ;
-1 x1 -2 x2 -4 x3 -8 x4 +15 x5 >= 0 ;
+1 x6 +2 x7 +4 x8 +8 x9 -1 x10 >= 0 ;
-1 x6 -2 x7 -4 x8 -8 x9 +15 x10 >= 0 ;
+1 x11 +2 x12 +4 x13 +8 x14 -1 x15 >= 0 ;
-1 x11 -2 x12 -4 x13 -8 x14 +15 x15 >= 0 ;
+1 x16 +2 x17 +4 x18 +8 x19 -1 x20 >= 0 ;
-1 x16 -2 x17 -4 x18 -8 x19 +15 x20 >= 0 ;
+1 x21 +2 x22 +4 x23 +8 x24 -1 x25 >= 0 ;
-1 x21 -2 x22 -4 x23 -8 x24 +15 x25 >= 0 ;
+1 x26 +2 x27 +4 x28 +8 x29 -1 x30 >= 0 ;
-1 x26 -2 x27 -4 x28 -8 x29 +15 x30 >= 0 ;
+1 x31 +2 x32 +4 x33 +8 x34 -1 x35 >= 0 ;
-1 x31 -2 x32 -4 x33 -8 x34 +15 x35 >= 0 ;
+1 x36 +2 x37 +4 x38 +8 x39 -1 x40 >= 0 ;
-1 x36 -2 x37 -4 x38 -8 x39 +15 x40 >= 0 ;
+1 x41 +2 x42 +4 x43 +8 x44 -1 x45 >= 0 ;
-1 x41 -2 x42 -4 x43 -8 x44 +15 x45 >= 0 ;
+1 x46 +2 x47 +4 x48 +8 x49 -1 x50 >= 0 ;
-1 x46 -2 x47 -4 x48 -8 x49 +15 x50 >= 0 ;
+1 x51 +2 x52 +4 x53 +8 x54 -1 x55 >= 0 ;
-1 x51 -2 x52 -4 x53 -8 x54 +15 x55 >= 0 ;
+1 x56 +2 x57 +4 x58 +8 x59 -1 x60 >= 0 ;
-1 x56 -2 x57 -4 x58 -8 x59 +15 x60 >= 0 ;
+1 x61 +2 x62 +4 x63 +8 x64 -1 x65 >= 0 ;
-1 x61 -2 x62 -4 x63 -8 x64 +15 x65 >= 0 ;
+1 x66 +2 x67 +4 x68 +8 x69 -1 x70 >= 0 ;
-1 x66 -2 x67 -4 x68 -8 x69 +15 x70 >= 0 ;
+1 x71 +2 x72 +4 x73 +8 x74 -1 x75 >= 0 ;
-1 x71 -2 x72 -4 x73 -8 x74 +15 x75 >= 0 ;
+1 x76 +2 x77 +4 x78 +8 x79 -1 x80 >= 0 ;
-1 x76 -2 x77 -4 x78 -8 x79 +15 x80 >= 0 ;
+1 x81 +2 x82 +4 x83 +8 x84 -1 x85 >= 0 ;
-1 x81 -2 x82 -4 x83 -8 x84 +15 x85 >= 0 ;
+1 x86 +2 x87 +4 x88 +8 x89 -1 x90 >= 0 ;
-1 x86 -2 x87 -4 x88 -8 x89 +15 x90 >= 0 ;
+1 x91 +2 x92 +4 x93 +8 x94 -1 x95 >= 0 ;
-1 x91 -2 x92 -4 x93 -8 x94 +15 x95 >= 0 ;
+1 x96 +2 x97 +4 x98 +8 x99 -1 x100 >= 0 ;
-1 x96 -2 x97 -4 x98 -8 x99 +15 x100 >= 0 ;
+1 x101 +2 x102 +4 x103 +8 x104 -1 x105 >= 0 ;
-1 x101 -2 x102 -4 x103 -8 x104 +15 x105 >= 0 ;
+1 x106 +2 x107 +4 x108 +8 x109 -1 x110 >= 0 ;
-1 x106 -2 x107 -4 x108 -8 x109 +15 x110 >= 0 ;
+1 x111 +2 x112 +4 x113 +8 x114 -1 x115 >= 0 ;
-1 x111 -2 x112 -4 x113 -8 x114 +15 x115 >= 0 ;
+1 x116 +2 x117 +4 x118 +8 x119 -1 x120 >= 0 ;
-1 x116 -2 x117 -4 x118 -8 x119 +15 x120 >= 0 ;
+1 x121 +2 x122 +4 x123 +8 x124 -1 x125 >= 0 ;
-1 x121 -2 x122 -4 x123 -8 x124 +15 x125 >= 0 ;
+1 x126 +2 x127 +4 x128 +8 x129 -1 x130 >= 0 ;
-1 x126 -2 x127 -4 x128 -8 x129 +15 x130 >= 0 ;
+1 x131 +2 x132 +4 x133 +8 x134 -1 x135 >= 0 ;
-1 x131 -2 x132 -4 x133 -8 x134 +15 x135 >= 0 ;
+1 x136 +2 x137 +4 x138 +8 x139 -1 x140 >= 0 ;
-1 x136 -2 x137 -4 x138 -8 x139 +15 x140 >= 0 ;
+1 x141 +2 x142 +4 x143 +8 x144 -1 x145 >= 0 ;
-1 x141 -2 x142 -4 x143 -8 x144 +15 x145 >= 0 ;
+1 x146 +2 x147 +4 x148 +8 x149 -1 x150 >= 0 ;
-1 x146 -2 x147 -4 x148 -8 x149 +15 x150 >= 0 ;
+1 x151 +2 x152 +4 x153 +8 x154 -1 x155 >= 0 ;
-1 x151 -2 x152 -4 x153 -8 x154 +15 x155 >= 0 ;
+1 x156 +2 x157 +4 x158 +8 x159 -1 x160 >= 0 ;
-1 x156 -2 x157 -4 x158 -8 x159 +15 x160 >= 0 ;
+1 x161 +2 x162 +4 x163 +8 x164 -1 x165 >= 0 ;
-1 x161 -2 x162 -4 x163 -8 x164 +15 x165 >= 0 ;
+1 x166 +2 x167 +4 x168 +8 x169 -1 x170 >= 0 ;
-1 x166 -2 x167 -4 x168 -8 x169 +15 x170 >= 0 ;
+1 x171 +2 x172 +4 x173 +8 x174 -1 x175 >= 0 ;
-1 x171 -2 x172 -4 x173 -8 x174 +15 x175 >= 0 ;
+1 x176 +2 x177 +4 x178 +8 x179 -1 x180 >= 0 ;
-1 x176 -2 x177 -4 x178 -8 x179 +15 x180 >= 0 ;
+1 x181 +2 x182 +4 x183 +8 x184 -1 x185 >= 0 ;
-1 x181 -2 x182 -4 x183 -8 x184 +15 x185 >= 0 ;
+1 x186 +2 x187 +4 x188 +8 x189 -1 x190 >= 0 ;
-1 x186 -2 x187 -4 x188 -8 x189 +15 x190 >= 0 ;
+1 x191 +2 x192 +4 x193 +8 x194 -1 x195 >= 0 ;
-1 x191 -2 x192 -4 x193 -8 x194 +15 x195 >= 0 ;
+1 x196 +2 x197 +4 x198 +8 x199 -1 x200 >= 0 ;
-1 x196 -2 x197 -4 x198 -8 x199 +15 x200 >= 0 ;
+1 x201 +2 x202 +4 x203 +8 x204 -1 x205 >= 0 ;
-1 x201 -2 x202 -4 x203 -8 x204 +15 x205 >= 0 ;
+1 x206 +2 x207 +4 x208 +8 x209 -1 x210 >= 0 ;
-1 x206 -2 x207 -4 x208 -8 x209 +15 x210 >= 0 ;
+1 x211 +2 x212 +4 x213 +8 x214 -1 x215 >= 0 ;
-1 x211 -2 x212 -4 x213 -8 x214 +15 x215 >= 0 ;
+1 x216 +2 x217 +4 x218 +8 x219 -1 x220 >= 0 ;
-1 x216 -2 x217 -4 x218 -8 x219 +15 x220 >= 0 ;
+1 x221 +2 x222 +4 x223 +8 x224 -1 x225 >= 0 ;
-1 x221 -2 x222 -4 x223 -8 x224 +15 x225 >= 0 ;
+1 x226 +2 x227 +4 x228 +8 x229 -1 x230 >= 0 ;
-1 x226 -2 x227 -4 x228 -8 x229 +15 x230 >= 0 ;
+1 x231 +2 x232 +4 x233 +8 x234 -1 x235 >= 0 ;
-1 x231 -2 x232 -4 x233 -8 x234 +15 x235 >= 0 ;
+1 x236 +2 x237 +4 x238 +8 x239 -1 x240 >= 0 ;
-1 x236 -2 x237 -4 x238 -8 x239 +15 x240 >= 0 ;
+1 x241 +2 x242 +4 x243 +8 x244 -1 x245 >= 0 ;
-1 x241 -2 x242 -4 x243 -8 x244 +15 x245 >= 0 ;
+1 x246 +2 x247 +4 x248 +8 x249 -1 x250 >= 0 ;
-1 x246 -2 x247 -4 x248 -8 x249 +15 x250 >= 0 ;
+1 x251 +2 x252 +4 x253 +8 x254 -1 x255 >= 0 ;
-1 x251 -2 x252 -4 x253 -8 x254 +15 x255 >= 0 ;
+1 x256 +2 x257 +4 x258 +8 x259 -1 x260 >= 0 ;
-1 x256 -2 x257 -4 x258 -8 x259 +15 x260 >= 0 ;
+1 x261 +2 x262 +4 x263 +8 x264 -1 x265 >= 0 ;
-1 x261 -2 x262 -4 x263 -8 x264 +15 x265 >= 0 ;
+1 x266 +2 x267 +4 x268 +8 x269 -1 x270 >= 0 ;
-1 x266 -2 x267 -4 x268 -8 x269 +15 x270 >= 0 ;
+1 x271 +2 x272 +4 x273 +8 x274 -1 x275 >= 0 ;
-1 x271 -2 x272 -4 x273 -8 x274 +15 x275 >= 0 ;
+1 x276 +2 x277 +4 x278 +8 x279 -1 x280 >= 0 ;
-1 x276 -2 x277 -4 x278 -8 x279 +15 x280 >= 0 ;
+1 x281 +2 x282 +4 x283 +8 x284 -1 x285 >= 0 ;
-1 x281 -2 x282 -4 x283 -8 x284 +15 x285 >= 0 ;
+1 x286 +2 x287 +4 x288 +8 x289 -1 x290 >= 0 ;
-1 x286 -2 x287 -4 x288 -8 x289 +15 x290 >= 0 ;
+1 x291 +2 x292 +4 x293 +8 x294 -1 x295 >= 0 ;
-1 x291 -2 x292 -4 x293 -8 x294 +15 x295 >= 0 ;
+1 x296 +2 x297 +4 x298 +8 x299 -1 x300 >= 0 ;
-1 x296 -2 x297 -4 x298 -8 x299 +15 x300 >= 0 ;
+1 x301 +2 x302 +4 x303 +8 x304 -1 x305 >= 0 ;
-1 x301 -2 x302 -4 x303 -8 x304 +15 x305 >= 0 ;
+1 x306 +2 x307 +4 x308 +8 x309 -1 x310 >= 0 ;
-1 x306 -2 x307 -4 x308 -8 x309 +15 x310 >= 0 ;
+1 x311 +2 x312 +4 x313 +8 x314 -1 x315 >= 0 ;
-1 x311 -2 x312 -4 x313 -8 x314 +15 x315 >= 0 ;
+1 x316 +2 x317 +4 x318 +8 x319 -1 x320 >= 0 ;
-1 x316 -2 x317 -4 x318 -8 x319 +15 x320 >= 0 ;
+1 x321 +2 x322 +4 x323 +8 x324 -1 x325 >= 0 ;
-1 x321 -2 x322 -4 x323 -8 x324 +15 x325 >= 0 ;
+1 x326 +2 x327 +4 x328 +8 x329 -1 x330 >= 0 ;
-1 x326 -2 x327 -4 x328 -8 x329 +15 x330 >= 0 ;
+1 x331 +2 x332 +4 x333 +8 x334 -1 x335 >= 0 ;
-1 x331 -2 x332 -4 x333 -8 x334 +15 x335 >= 0 ;
+1 x336 +2 x337 +4 x338 +8 x339 -1 x340 >= 0 ;
-1 x336 -2 x337 -4 x338 -8 x339 +15 x340 >= 0 ;
+1 x341 +2 x342 +4 x343 +8 x344 -1 x345 >= 0 ;
-1 x341 -2 x342 -4 x343 -8 x344 +15 x345 >= 0 ;
+1 x346 +2 x347 +4 x348 +8 x349 -1 x350 >= 0 ;
-1 x346 -2 x347 -4 x348 -8 x349 +15 x350 >= 0 ;
+1 x351 +2 x352 +4 x353 +8 x354 -1 x355 >= 0 ;
-1 x351 -2 x352 -4 x353 -8 x354 +15 x355 >= 0 ;
+1 x356 +2 x357 +4 x358 +8 x359 -1 x360 >= 0 ;
-1 x356 -2 x357 -4 x358 -8 x359 +15 x360 >= 0 ;
+1 x361 +2 x362 +4 x363 +8 x364 -1 x365 >= 0 ;
-1 x361 -2 x362 -4 x363 -8 x364 +15 x365 >= 0 ;
+1 x366 +2 x367 +4 x368 +8 x369 -1 x370 >= 0 ;
-1 x366 -2 x367 -4 x368 -8 x369 +15 x370 >= 0 ;
+1 x371 +2 x372 +4 x373 +8 x374 -1 x375 >= 0 ;
-1 x371 -2 x372 -4 x373 -8 x374 +15 x375 >= 0 ;
+1 x376 +2 x377 +4 x378 +8 x379 -1 x380 >= 0 ;
-1 x376 -2 x377 -4 x378 -8 x379 +15 x380 >= 0 ;
+1 x381 +2 x382 +4 x383 +8 x384 -1 x385 >= 0 ;
-1 x381 -2 x382 -4 x383 -8 x384 +15 x385 >= 0 ;
+1 x386 +2 x387 +4 x388 +8 x389 -1 x390 >= 0 ;
-1 x386 -2 x387 -4 x388 -8 x389 +15 x390 >= 0 ;
+1 x391 +2 x392 +4 x393 +8 x394 -1 x395 >= 0 ;
-1 x391 -2 x392 -4 x393 -8 x394 +15 x395 >= 0 ;
+1 x396 +2 x397 +4 x398 +8 x399 -1 x400 >= 0 ;
-1 x396 -2 x397 -4 x398 -8 x399 +15 x400 >= 0 ;
+1 x401 +2 x402 +4 x403 +8 x404 -1 x405 >= 0 ;
-1 x401 -2 x402 -4 x403 -8 x404 +15 x405 >= 0 ;
+1 x406 +2 x407 +4 x408 +8 x409 -1 x410 >= 0 ;
-1 x406 -2 x407 -4 x408 -8 x409 +15 x410 >= 0 ;
+1 x411 +2 x412 +4 x413 +8 x414 -1 x415 >= 0 ;
-1 x411 -2 x412 -4 x413 -8 x414 +15 x415 >= 0 ;
+1 x416 +2 x417 +4 x418 +8 x419 -1 x420 >= 0 ;
-1 x416 -2 x417 -4 x418 -8 x419 +15 x420 >= 0 ;
+1 x421 +2 x422 +4 x423 +8 x424 -1 x425 >= 0 ;
-1 x421 -2 x422 -4 x423 -8 x424 +15 x425 >= 0 ;
+1 x426 +2 x427 +4 x428 +8 x429 -1 x430 >= 0 ;
-1 x426 -2 x427 -4 x428 -8 x429 +15 x430 >= 0 ;
+1 x431 +2 x432 +4 x433 +8 x434 -1 x435 >= 0 ;
-1 x431 -2 x432 -4 x433 -8 x434 +15 x435 >= 0 ;
+1 x436 +2 x437 +4 x438 +8 x439 -1 x440 >= 0 ;
-1 x436 -2 x437 -4 x438 -8 x439 +15 x440 >= 0 ;
+1 x441 +2 x442 +4 x443 +8 x444 -1 x445 >= 0 ;
-1 x441 -2 x442 -4 x443 -8 x444 +15 x445 >= 0 ;
+1 x446 +2 x447 +4 x448 +8 x449 -1 x450 >= 0 ;
-1 x446 -2 x447 -4 x448 -8 x449 +15 x450 >= 0 ;
+1 x451 +2 x452 +4 x453 +8 x454 -1 x455 >= 0 ;
-1 x451 -2 x452 -4 x453 -8 x454 +15 x455 >= 0 ;
+1 x456 +2 x457 +4 x458 +8 x459 -1 x460 >= 0 ;
-1 x456 -2 x457 -4 x458 -8 x459 +15 x460 >= 0 ;
+1 x461 +2 x462 +4 x463 +8 x464 -1 x465 >= 0 ;
-1 x461 -2 x462 -4 x463 -8 x464 +15 x465 >= 0 ;
+1 x466 +2 x467 +4 x468 +8 x469 -1 x470 >= 0 ;
-1 x466 -2 x467 -4 x468 -8 x469 +15 x470 >= 0 ;
+1 x471 +2 x472 +4 x473 +8 x474 -1 x475 >= 0 ;
-1 x471 -2 x472 -4 x473 -8 x474 +15 x475 >= 0 ;
+1 x476 +2 x477 +4 x478 +8 x479 -1 x480 >= 0 ;
-1 x476 -2 x477 -4 x478 -8 x479 +15 x480 >= 0 ;
+1 x481 +2 x482 +4 x483 +8 x484 -1 x485 >= 0 ;
-1 x481 -2 x482 -4 x483 -8 x484 +15 x485 >= 0 ;
+1 x486 +2 x487 +4 x488 +8 x489 -1 x490 >= 0 ;
-1 x486 -2 x487 -4 x488 -8 x489 +15 x490 >= 0 ;
+1 x491 +2 x492 +4 x493 +8 x494 -1 x495 >= 0 ;
-1 x491 -2 x492 -4 x493 -8 x494 +15 x495 >= 0 ;
+1 x496 +2 x497 +4 x498 +8 x499 -1 x500 >= 0 ;
-1 x496 -2 x497 -4 x498 -8 x499 +15 x500 >= 0 ;
+1 x501 +2 x502 +4 x503 +8 x504 -1 x505 >= 0 ;
-1 x501 -2 x502 -4 x503 -8 x504 +15 x505 >= 0 ;
+1 x506 +2 x507 +4 x508 +8 x509 -1 x510 >= 0 ;
-1 x506 -2 x507 -4 x508 -8 x509 +15 x510 >= 0 ;
+1 x511 +2 x512 +4 x513 +8 x514 -1 x515 >= 0 ;
-1 x511 -2 x512 -4 x513 -8 x514 +15 x515 >= 0 ;
+1 x516 +2 x517 +4 x518 +8 x519 -1 x520 >= 0 ;
-1 x516 -2 x517 -4 x518 -8 x519 +15 x520 >= 0 ;
+1 x521 +2 x522 +4 x523 +8 x524 -1 x525 >= 0 ;
-1 x521 -2 x522 -4 x523 -8 x524 +15 x525 >= 0 ;
+1 x526 +2 x527 +4 x528 +8 x529 -1 x530 >= 0 ;
-1 x526 -2 x527 -4 x528 -8 x529 +15 x530 >= 0 ;
+1 x531 +2 x532 +4 x533 +8 x534 -1 x535 >= 0 ;
-1 x531 -2 x532 -4 x533 -8 x534 +15 x535 >= 0 ;
+1 x536 +2 x537 +4 x538 +8 x539 -1 x540 >= 0 ;
-1 x536 -2 x537 -4 x538 -8 x539 +15 x540 >= 0 ;
+1 x541 +2 x542 +4 x543 +8 x544 -1 x545 >= 0 ;
-1 x541 -2 x542 -4 x543 -8 x544 +15 x545 >= 0 ;
+1 x546 +2 x547 +4 x548 +8 x549 -1 x550 >= 0 ;
-1 x546 -2 x547 -4 x548 -8 x549 +15 x550 >= 0 ;
+1 x551 +2 x552 +4 x553 +8 x554 -1 x555 >= 0 ;
-1 x551 -2 x552 -4 x553 -8 x554 +15 x555 >= 0 ;
+1 x556 +2 x557 +4 x558 +8 x559 -1 x560 >= 0 ;
-1 x556 -2 x557 -4 x558 -8 x559 +15 x560 >= 0 ;
+1 x561 +2 x562 +4 x563 +8 x564 -1 x565 >= 0 ;
-1 x561 -2 x562 -4 x563 -8 x564 +15 x565 >= 0 ;
+1 x566 +2 x567 +4 x568 +8 x569 -1 x570 >= 0 ;
-1 x566 -2 x567 -4 x568 -8 x569 +15 x570 >= 0 ;
+1 x571 +2 x572 +4 x573 +8 x574 -1 x575 >= 0 ;
-1 x571 -2 x572 -4 x573 -8 x574 +15 x575 >= 0 ;
+1 x576 +2 x577 +4 x578 +8 x579 -1 x580 >= 0 ;
-1 x576 -2 x577 -4 x578 -8 x579 +15 x580 >= 0 ;
+1 x581 +2 x582 +4 x583 +8 x584 -1 x585 >= 0 ;
-1 x581 -2 x582 -4 x583 -8 x584 +15 x585 >= 0 ;
+1 x586 +2 x587 +4 x588 +8 x589 -1 x590 >= 0 ;
-1 x586 -2 x587 -4 x588 -8 x589 +15 x590 >= 0 ;
+1 x591 +2 x592 +4 x593 +8 x594 -1 x595 >= 0 ;
-1 x591 -2 x592 -4 x593 -8 x594 +15 x595 >= 0 ;
+1 x596 +2 x597 +4 x598 +8 x599 -1 x600 >= 0 ;
-1 x596 -2 x597 -4 x598 -8 x599 +15 x600 >= 0 ;
+1 x601 +2 x602 +4 x603 +8 x604 -1 x605 >= 0 ;
-1 x601 -2 x602 -4 x603 -8 x604 +15 x605 >= 0 ;
+1 x606 +2 x607 +4 x608 +8 x609 -1 x610 >= 0 ;
-1 x606 -2 x607 -4 x608 -8 x609 +15 x610 >= 0 ;
+1 x611 +2 x612 +4 x613 +8 x614 -1 x615 >= 0 ;
-1 x611 -2 x612 -4 x613 -8 x614 +15 x615 >= 0 ;
+1 x616 +2 x617 +4 x618 +8 x619 -1 x620 >= 0 ;
-1 x616 -2 x617 -4 x618 -8 x619 +15 x620 >= 0 ;
+1 x621 +2 x622 +4 x623 +8 x624 -1 x625 >= 0 ;
-1 x621 -2 x622 -4 x623 -8 x624 +15 x625 >= 0 ;
+1 x626 +2 x627 +4 x628 +8 x629 -1 x630 >= 0 ;
-1 x626 -2 x627 -4 x628 -8 x629 +15 x630 >= 0 ;
+1 x631 +2 x632 +4 x633 +8 x634 -1 x635 >= 0 ;
-1 x631 -2 x632 -4 x633 -8 x634 +15 x635 >= 0 ;
+1 x636 +2 x637 +4 x638 +8 x639 -1 x640 >= 0 ;
-1 x636 -2 x637 -4 x638 -8 x639 +15 x640 >= 0 ;
+1 x1 +2 x2 +4 x3 +8 x4 +1 x6 +2 x7 +4 x8 +8 x9 +1 x11 +2 x12 +4 x13 +8 x14 +1 x16 +2 x17 +4 x18 +8 x19 +1 x21 +2 x22 +4 x23 +8 x24 +1 x26 +2 x27 +4 x28 +8 x29 +1 x31 +2 x32 +4 x33 +8 x34 +1 x36 +2 x37 +4 x38 +8 x39 +1 x41 +2 x42 +4 x43 +8 x44 +1 x46 +2 x47 +4 x48 +8 x49 +1 x51 +2 x52 +4 x53 +8 x54 +1 x56 +2 x57 +4 x58 +8 x59 +1 x61 +2 x62 +4 x63 +8 x64 +1 x66 +2 x67 +4 x68 +8 x69 +1 x71 +2 x72 +4 x73 +8 x74 +1 x76 +2 x77 +4 x78 +8 x79 +1 x81 +2 x82 +4 x83 +8 x84 +1 x86 +2 x87 +4 x88 +8 x89 +1 x91 +2 x92 +4 x93 +8 x94 +1 x96 +2 x97 +4 x98 +8 x99 +1 x101 +2 x102 +4 x103 +8 x104 +1 x106 +2 x107 +4 x108 +8 x109 +1 x111 +2 x112 +4 x113 +8 x114 +1 x116 +2 x117 +4 x118 +8 x119 +1 x121 +2 x122 +4 x123 +8 x124 +1 x126 +2 x127 +4 x128 +8 x129 +1 x131 +2 x132 +4 x133 +8 x134 +1 x136 +2 x137 +4 x138 +8 x139 +1 x141 +2 x142 +4 x143 +8 x144 +1 x146 +2 x147 +4 x148 +8 x149 +1 x151 +2 x152 +4 x153 +8 x154 +1 x156 +2 x157 +4 x158 +8 x159 +1 x161 +2 x162 +4 x163 +8 x164 +1 x166 +2 x167 +4 x168 +8 x169 +1 x171 +2 x172 +4 x173 +8 x174 +1 x176 +2 x177 +4 x178 +8 x179 +1 x181 +2 x182 +4 x183 +8 x184 +1 x186 +2 x187 +4 x188 +8 x189 +1 x191 +2 x192 +4 x193 +8 x194 +1 x196 +2 x197 +4 x198 +8 x199 +1 x201 +2 x202 +4 x203 +8 x204 +1 x206 +2 x207 +4 x208 +8 x209 +1 x211 +2 x212 +4 x213 +8 x214 +1 x216 +2 x217 +4 x218 +8 x219 +1 x221 +2 x222 +4 x223 +8 x224 +1 x226 +2 x227 +4 x228 +8 x229 +1 x231 +2 x232 +4 x233 +8 x234 +1 x236 +2 x237 +4 x238 +8 x239 +1 x241 +2 x242 +4 x243 +8 x244 +1 x246 +2 x247 +4 x248 +8 x249 +1 x251 +2 x252 +4 x253 +8 x254 +1 x256 +2 x257 +4 x258 +8 x259 +1 x261 +2 x262 +4 x263 +8 x264 +1 x266 +2 x267 +4 x268 +8 x269 +1 x271 +2 x272 +4 x273 +8 x274 +1 x276 +2 x277 +4 x278 +8 x279 +1 x281 +2 x282 +4 x283 +8 x284 +1 x286 +2 x287 +4 x288 +8 x289 +1 x291 +2 x292 +4 x293 +8 x294 +1 x296 +2 x297 +4 x298 +8 x299 +1 x301 +2 x302 +4 x303 +8 x304 +1 x306 +2 x307 +4 x308 +8 x309 +1 x311 +2 x312 +4 x313 +8 x314 +1 x316 +2 x317 +4 x318 +8 x319 +1 x321 +2 x322 +4 x323 +8 x324 +1 x326 +2 x327 +4 x328 +8 x329 +1 x331 +2 x332 +4 x333 +8 x334 +1 x336 +2 x337 +4 x338 +8 x339 +1 x341 +2 x342 +4 x343 +8 x344 +1 x346 +2 x347 +4 x348 +8 x349 +1 x351 +2 x352 +4 x353 +8 x354 +1 x356 +2 x357 +4 x358 +8 x359 +1 x361 +2 x362 +4 x363 +8 x364 +1 x366 +2 x367 +4 x368 +8 x369 +1 x371 +2 x372 +4 x373 +8 x374 +1 x376 +2 x377 +4 x378 +8 x379 +1 x381 +2 x382 +4 x383 +8 x384 +1 x386 +2 x387 +4 x388 +8 x389 +1 x391 +2 x392 +4 x393 +8 x394 +1 x396 +2 x397 +4 x398 +8 x399 +1 x401 +2 x402 +4 x403 +8 x404 +1 x406 +2 x407 +4 x408 +8 x409 +1 x411 +2 x412 +4 x413 +8 x414 +1 x416 +2 x417 +4 x418 +8 x419 +1 x421 +2 x422 +4 x423 +8 x424 +1 x426 +2 x427 +4 x428 +8 x429 +1 x431 +2 x432 +4 x433 +8 x434 +1 x436 +2 x437 +4 x438 +8 x439 +1 x441 +2 x442 +4 x443 +8 x444 +1 x446 +2 x447 +4 x448 +8 x449 +1 x451 +2 x452 +4 x453 +8 x454 +1 x456 +2 x457 +4 x458 +8 x459 +1 x461 +2 x462 +4 x463 +8 x464 +1 x466 +2 x467 +4 x468 +8 x469 +1 x471 +2 x472 +4 x473 +8 x474 +1 x476 +2 x477 +4 x478 +8 x479 +1 x481 +2 x482 +4 x483 +8 x484 +1 x486 +2 x487 +4 x488 +8 x489 +1 x491 +2 x492 +4 x493 +8 x494 +1 x496 +2 x497 +4 x498 +8 x499 +1 x501 +2 x502 +4 x503 +8 x504 +1 x506 +2 x507 +4 x508 +8 x509 +1 x511 +2 x512 +4 x513 +8 x514 +1 x516 +2 x517 +4 x518 +8 x519 +1 x521 +2 x522 +4 x523 +8 x524 +1 x526 +2 x527 +4 x528 +8 x529 +1 x531 +2 x532 +4 x533 +8 x534 +1 x536 +2 x537 +4 x538 +8 x539 +1 x541 +2 x542 +4 x543 +8 x544 +1 x546 +2 x547 +4 x548 +8 x549 +1 x551 +2 x552 +4 x553 +8 x554 +1 x556 +2 x557 +4 x558 +8 x559 +1 x561 +2 x562 +4 x563 +8 x564 +1 x566 +2 x567 +4 x568 +8 x569 +1 x571 +2 x572 +4 x573 +8 x574 +1 x576 +2 x577 +4 x578 +8 x579 +1 x581 +2 x582 +4 x583 +8 x584 +1 x586 +2 x587 +4 x588 +8 x589 +1 x591 +2 x592 +4 x593 +8 x594 +1 x596 +2 x597 +4 x598 +8 x599 +1 x601 +2 x602 +4 x603 +8 x604 +1 x606 +2 x607 +4 x608 +8 x609 +1 x611 +2 x612 +4 x613 +8 x614 +1 x616 +2 x617 +4 x618 +8 x619 +1 x621 +2 x622 +4 x623 +8 x624 +1 x626 +2 x627 +4 x628 +8 x629 +1 x631 +2 x632 +4 x633 +8 x634 +1 x636 +2 x637 +4 x638 +8 x639 >= 15 ;
-1 x1 -2 x2 -4 x3 -8 x4 -1 x6 -2 x7 -4 x8 -8 x9 -1 x11 -2 x12 -4 x13 -8 x14 -1 x16 -2 x17 -4 x18 -8 x19 -1 x21 -2 x22 -4 x23 -8 x24 -1 x26 -2 x27 -4 x28 -8 x29 -1 x31 -2 x32 -4 x33 -8 x34 -1 x36 -2 x37 -4 x38 -8 x39 -1 x41 -2 x42 -4 x43 -8 x44 -1 x46 -2 x47 -4 x48 -8 x49 -1 x51 -2 x52 -4 x53 -8 x54 -1 x56 -2 x57 -4 x58 -8 x59 -1 x61 -2 x62 -4 x63 -8 x64 -1 x66 -2 x67 -4 x68 -8 x69 -1 x71 -2 x72 -4 x73 -8 x74 -1 x76 -2 x77 -4 x78 -8 x79 -1 x81 -2 x82 -4 x83 -8 x84 -1 x86 -2 x87 -4 x88 -8 x89 -1 x91 -2 x92 -4 x93 -8 x94 -1 x96 -2 x97 -4 x98 -8 x99 -1 x101 -2 x102 -4 x103 -8 x104 -1 x106 -2 x107 -4 x108 -8 x109 -1 x111 -2 x112 -4 x113 -8 x114 -1 x116 -2 x117 -4 x118 -8 x119 -1 x121 -2 x122 -4 x123 -8 x124 -1 x126 -2 x127 -4 x128 -8 x129 -1 x131 -2 x132 -4 x133 -8 x134 -1 x136 -2 x137 -4 x138 -8 x139 -1 x141 -2 x142 -4 x143 -8 x144 -1 x146 -2 x147 -4 x148 -8 x149 -1 x151 -2 x152 -4 x153 -8 x154 -1 x156 -2 x157 -4 x158 -8 x159 -1 x161 -2 x162 -4 x163 -8 x164 -1 x166 -2 x167 -4 x168 -8 x169 -1 x171 -2 x172 -4 x173 -8 x174 -1 x176 -2 x177 -4 x178 -8 x179 -1 x181 -2 x182 -4 x183 -8 x184 -1 x186 -2 x187 -4 x188 -8 x189 -1 x191 -2 x192 -4 x193 -8 x194 -1 x196 -2 x197 -4 x198 -8 x199 -1 x201 -2 x202 -4 x203 -8 x204 -1 x206 -2 x207 -4 x208 -8 x209 -1 x211 -2 x212 -4 x213 -8 x214 -1 x216 -2 x217 -4 x218 -8 x219 -1 x221 -2 x222 -4 x223 -8 x224 -1 x226 -2 x227 -4 x228 -8 x229 -1 x231 -2 x232 -4 x233 -8 x234 -1 x236 -2 x237 -4 x238 -8 x239 -1 x241 -2 x242 -4 x243 -8 x244 -1 x246 -2 x247 -4 x248 -8 x249 -1 x251 -2 x252 -4 x253 -8 x254 -1 x256 -2 x257 -4 x258 -8 x259 -1 x261 -2 x262 -4 x263 -8 x264 -1 x266 -2 x267 -4 x268 -8 x269 -1 x271 -2 x272 -4 x273 -8 x274 -1 x276 -2 x277 -4 x278 -8 x279 -1 x281 -2 x282 -4 x283 -8 x284 -1 x286 -2 x287 -4 x288 -8 x289 -1 x291 -2 x292 -4 x293 -8 x294 -1 x296 -2 x297 -4 x298 -8 x299 -1 x301 -2 x302 -4 x303 -8 x304 -1 x306 -2 x307 -4 x308 -8 x309 -1 x311 -2 x312 -4 x313 -8 x314 -1 x316 -2 x317 -4 x318 -8 x319 -1 x321 -2 x322 -4 x323 -8 x324 -1 x326 -2 x327 -4 x328 -8 x329 -1 x331 -2 x332 -4 x333 -8 x334 -1 x336 -2 x337 -4 x338 -8 x339 -1 x341 -2 x342 -4 x343 -8 x344 -1 x346 -2 x347 -4 x348 -8 x349 -1 x351 -2 x352 -4 x353 -8 x354 -1 x356 -2 x357 -4 x358 -8 x359 -1 x361 -2 x362 -4 x363 -8 x364 -1 x366 -2 x367 -4 x368 -8 x369 -1 x371 -2 x372 -4 x373 -8 x374 -1 x376 -2 x377 -4 x378 -8 x379 -1 x381 -2 x382 -4 x383 -8 x384 -1 x386 -2 x387 -4 x388 -8 x389 -1 x391 -2 x392 -4 x393 -8 x394 -1 x396 -2 x397 -4 x398 -8 x399 -1 x401 -2 x402 -4 x403 -8 x404 -1 x406 -2 x407 -4 x408 -8 x409 -1 x411 -2 x412 -4 x413 -8 x414 -1 x416 -2 x417 -4 x418 -8 x419 -1 x421 -2 x422 -4 x423 -8 x424 -1 x426 -2 x427 -4 x428 -8 x429 -1 x431 -2 x432 -4 x433 -8 x434 -1 x436 -2 x437 -4 x438 -8 x439 -1 x441 -2 x442 -4 x443 -8 x444 -1 x446 -2 x447 -4 x448 -8 x449 -1 x451 -2 x452 -4 x453 -8 x454 -1 x456 -2 x457 -4 x458 -8 x459 -1 x461 -2 x462 -4 x463 -8 x464 -1 x466 -2 x467 -4 x468 -8 x469 -1 x471 -2 x472 -4 x473 -8 x474 -1 x476 -2 x477 -4 x478 -8 x479 -1 x481 -2 x482 -4 x483 -8 x484 -1 x486 -2 x487 -4 x488 -8 x489 -1 x491 -2 x492 -4 x493 -8 x494 -1 x496 -2 x497 -4 x498 -8 x499 -1 x501 -2 x502 -4 x503 -8 x504 -1 x506 -2 x507 -4 x508 -8 x509 -1 x511 -2 x512 -4 x513 -8 x514 -1 x516 -2 x517 -4 x518 -8 x519 -1 x521 -2 x522 -4 x523 -8 x524 -1 x526 -2 x527 -4 x528 -8 x529 -1 x531 -2 x532 -4 x533 -8 x534 -1 x536 -2 x537 -4 x538 -8 x539 -1 x541 -2 x542 -4 x543 -8 x544 -1 x546 -2 x547 -4 x548 -8 x549 -1 x551 -2 x552 -4 x553 -8 x554 -1 x556 -2 x557 -4 x558 -8 x559 -1 x561 -2 x562 -4 x563 -8 x564 -1 x566 -2 x567 -4 x568 -8 x569 -1 x571 -2 x572 -4 x573 -8 x574 -1 x576 -2 x577 -4 x578 -8 x579 -1 x581 -2 x582 -4 x583 -8 x584 -1 x586 -2 x587 -4 x588 -8 x589 -1 x591 -2 x592 -4 x593 -8 x594 -1 x596 -2 x597 -4 x598 -8 x599 -1 x601 -2 x602 -4 x603 -8 x604 -1 x606 -2 x607 -4 x608 -8 x609 -1 x611 -2 x612 -4 x613 -8 x614 -1 x616 -2 x617 -4 x618 -8 x619 -1 x621 -2 x622 -4 x623 -8 x624 -1 x626 -2 x627 -4 x628 -8 x629 -1 x631 -2 x632 -4 x633 -8 x634 -1 x636 -2 x637 -4 x638 -8 x639 >= -15 ;
+1 x1 +2 x2 +4 x3 +8 x4 +1 x11 +2 x12 +4 x13 +8 x14 +1 x21 +2 x22 +4 x23 +8 x24 +1 x31 +2 x32 +4 x33 +8 x34 +1 x41 +2 x42 +4 x43 +8 x44 +1 x51 +2 x52 +4 x53 +8 x54 +1 x61 +2 x62 +4 x63 +8 x64 +1 x71 +2 x72 +4 x73 +8 x74 +1 x86 +2 x87 +4 x88 +8 x89 +1 x96 +2 x97 +4 x98 +8 x99 +1 x106 +2 x107 +4 x108 +8 x109 +1 x116 +2 x117 +4 x118 +8 x119 +1 x126 +2 x127 +4 x128 +8 x129 +1 x136 +2 x137 +4 x138 +8 x139 +1 x146 +2 x147 +4 x148 +8 x149 +1 x156 +2 x157 +4 x158 +8 x159 +1 x161 +2 x162 +4 x163 +8 x164 +1 x171 +2 x172 +4 x173 +8 x174 +1 x181 +2 x182 +4 x183 +8 x184 +1 x191 +2 x192 +4 x193 +8 x194 +1 x201 +2 x202 +4 x203 +8 x204 +1 x211 +2 x212 +4 x213 +8 x214 +1 x221 +2 x222 +4 x223 +8 x224 +1 x231 +2 x232 +4 x233 +8 x234 +1 x246 +2 x247 +4 x248 +8 x249 +1 x256 +2 x257 +4 x258 +8 x259 +1 x266 +2 x267 +4 x268 +8 x269 +1 x276 +2 x277 +4 x278 +8 x279 +1 x286 +2 x287 +4 x288 +8 x289 +1 x296 +2 x297 +4 x298 +8 x299 +1 x306 +2 x307 +4 x308 +8 x309 +1 x316 +2 x317 +4 x318 +8 x319 +1 x321 +2 x322 +4 x323 +8 x324 +1 x331 +2 x332 +4 x333 +8 x334 +1 x341 +2 x342 +4 x343 +8 x344 +1 x351 +2 x352 +4 x353 +8 x354 +1 x361 +2 x362 +4 x363 +8 x364 +1 x371 +2 x372 +4 x373 +8 x374 +1 x381 +2 x382 +4 x383 +8 x384 +1 x391 +2 x392 +4 x393 +8 x394 +1 x406 +2 x407 +4 x408 +8 x409 +1 x416 +2 x417 +4 x418 +8 x419 +1 x426 +2 x427 +4 x428 +8 x429 +1 x436 +2 x437 +4 x438 +8 x439 +1 x446 +2 x447 +4 x448 +8 x449 +1 x456 +2 x457 +4 x458 +8 x459 +1 x466 +2 x467 +4 x468 +8 x469 +1 x476 +2 x477 +4 x478 +8 x479 +1 x481 +2 x482 +4 x483 +8 x484 +1 x491 +2 x492 +4 x493 +8 x494 +1 x501 +2 x502 +4 x503 +8 x504 +1 x511 +2 x512 +4 x513 +8 x514 +1 x521 +2 x522 +4 x523 +8 x524 +1 x531 +2 x532 +4 x533 +8 x534 +1 x541 +2 x542 +4 x543 +8 x544 +1 x551 +2 x552 +4 x553 +8 x554 +1 x566 +2 x567 +4 x568 +8 x569 +1 x576 +2 x577 +4 x578 +8 x579 +1 x586 +2 x587 +4 x588 +8 x589 +1 x596 +2 x597 +4 x598 +8 x599 +1 x606 +2 x607 +4 x608 +8 x609 +1 x616 +2 x617 +4 x618 +8 x619 +1 x626 +2 x627 +4 x628 +8 x629 +1 x636 +2 x637 +4 x638 +8 x639 >= 2 ;
+1 x5 >= 1 ;
+1 x1 +2 x2 +4 x3 +8 x4 +2 x6 +4 x7 +8 x8 +16 x9 +1 x11 +2 x12 +4 x13 +8 x14 +1 x21 +2 x22 +4 x23 +8 x24 +2 x26 +4 x27 +8 x28 +16 x29 +1 x31 +2 x32 +4 x33 +8 x34 +1 x41 +2 x42 +4 x43 +8 x44 +2 x46 +4 x47 +8 x48 +16 x49 +1 x51 +2 x52 +4 x53 +8 x54 +1 x61 +2 x62 +4 x63 +8 x64 +2 x66 +4 x67 +8 x68 +16 x69 +1 x71 +2 x72 +4 x73 +8 x74 +2 x81 +4 x82 +8 x83 +16 x84 +1 x86 +2 x87 +4 x88 +8 x89 +1 x96 +2 x97 +4 x98 +8 x99 +2 x101 +4 x102 +8 x103 +16 x104 +1 x106 +2 x107 +4 x108 +8 x109 +1 x116 +2 x117 +4 x118 +8 x119 +2 x121 +4 x122 +8 x123 +16 x124 +1 x126 +2 x127 +4 x128 +8 x129 +1 x136 +2 x137 +4 x138 +8 x139 +2 x141 +4 x142 +8 x143 +16 x144 +1 x146 +2 x147 +4 x148 +8 x149 +1 x156 +2 x157 +4 x158 +8 x159 +1 x161 +2 x162 +4 x163 +8 x164 +1 x171 +2 x172 +4 x173 +8 x174 +2 x176 +4 x177 +8 x178 +16 x179 +1 x181 +2 x182 +4 x183 +8 x184 +1 x191 +2 x192 +4 x193 +8 x194 +2 x196 +4 x197 +8 x198 +16 x199 +1 x201 +2 x202 +4 x203 +8 x204 +1 x211 +2 x212 +4 x213 +8 x214 +2 x216 +4 x217 +8 x218 +16 x219 +1 x221 +2 x222 +4 x223 +8 x224 +1 x231 +2 x232 +4 x233 +8 x234 +2 x236 +4 x237 +8 x238 +16 x239 +1 x246 +2 x247 +4 x248 +8 x249 +2 x251 +4 x252 +8 x253 +16 x254 +1 x256 +2 x257 +4 x258 +8 x259 +1 x266 +2 x267 +4 x268 +8 x269 +2 x271 +4 x272 +8 x273 +16 x274 +1 x276 +2 x277 +4 x278 +8 x279 +1 x286 +2 x287 +4 x288 +8 x289 +2 x291 +4 x292 +8 x293 +16 x294 +1 x296 +2 x297 +4 x298 +8 x299 +1 x306 +2 x307 +4 x308 +8 x309 +2 x311 +4 x312 +8 x313 +16 x314 +1 x316 +2 x317 +4 x318 +8 x319 +1 x321 +2 x322 +4 x323 +8 x324 +2 x326 +4 x327 +8 x328 +16 x329 +1 x331 +2 x332 +4 x333 +8 x334 +1 x341 +2 x342 +4 x343 +8 x344 +2 x346 +4 x347 +8 x348 +16 x349 +1 x351 +2 x352 +4 x353 +8 x354 +1 x361 +2 x362 +4 x363 +8 x364 +2 x366 +4 x367 +8 x368 +16 x369 +1 x371 +2 x372 +4 x373 +8 x374 +1 x381 +2 x382 +4 x383 +8 x384 +2 x386 +4 x387 +8 x388 +16 x389 +1 x391 +2 x392 +4 x393 +8 x394 +2 x401 +4 x402 +8 x403 +16 x404 +1 x406 +2 x407 +4 x408 +8 x409 +1 x416 +2 x417 +4 x418 +8 x419 +2 x421 +4 x422 +8 x423 +16 x424 +1 x426 +2 x427 +4 x428 +8 x429 +1 x436 +2 x437 +4 x438 +8 x439 +2 x441 +4 x442 +8 x443 +16 x444 +1 x446 +2 x447 +4 x448 +8 x449 +1 x456 +2 x457 +4 x458 +8 x459 +2 x461 +4 x462 +8 x463 +16 x464 +1 x466 +2 x467 +4 x468 +8 x469 +1 x476 +2 x477 +4 x478 +8 x479 +1 x481 +2 x482 +4 x483 +8 x484 +1 x491 +2 x492 +4 x493 +8 x494 +2 x496 +4 x497 +8 x498 +16 x499 +1 x501 +2 x502 +4 x503 +8 x504 +1 x511 +2 x512 +4 x513 +8 x514 +2 x516 +4 x517 +8 x518 +16 x519 +1 x521 +2 x522 +4 x523 +8 x524 +1 x531 +2 x532 +4 x533 +8 x534 +2 x536 +4 x537 +8 x538 +16 x539 +1 x541 +2 x542 +4 x543 +8 x544 +1 x551 +2 x552 +4 x553 +8 x554 +2 x556 +4 x557 +8 x558 +16 x559 +1 x566 +2 x567 +4 x568 +8 x569 +2 x571 +4 x572 +8 x573 +16 x574 +1 x576 +2 x577 +4 x578 +8 x579 +1 x586 +2 x587 +4 x588 +8 x589 +2 x591 +4 x592 +8 x593 +16 x594 +1 x596 +2 x597 +4 x598 +8 x599 +1 x606 +2 x607 +4 x608 +8 x609 +2 x611 +4 x612 +8 x613 +16 x614 +1 x616 +2 x617 +4 x618 +8 x619 +1 x626 +2 x627 +4 x628 +8 x629 +2 x631 +4 x632 +8 x633 +16 x634 +1 x636 +2 x637 +4 x638 +8 x639 >= 4 ;
+1 x1 +2 x2 +4 x3 +8 x4 +2 x6 +4 x7 +8 x8 +16 x9 +1 x11 +2 x12 +4 x13 +8 x14 +4 x16 +8 x17 +16 x18 +32 x19 +1 x21 +2 x22 +4 x23 +8 x24 +2 x26 +4 x27 +8 x28 +16 x29 +1 x31 +2 x32 +4 x33 +8 x34 +1 x41 +2 x42 +4 x43 +8 x44 +2 x46 +4 x47 +8 x48 +16 x49 +1 x51 +2 x52 +4 x53 +8 x54 +4 x56 +8 x57 +16 x58 +32 x59 +1 x61 +2 x62 +4 x63 +8 x64 +2 x66 +4 x67 +8 x68 +16 x69 +1 x71 +2 x72 +4 x73 +8 x74 +2 x81 +4 x82 +8 x83 +16 x84 +1 x86 +2 x87 +4 x88 +8 x89 +4 x91 +8 x92 +16 x93 +32 x94 +1 x96 +2 x97 +4 x98 +8 x99 +2 x101 +4 x102 +8 x103 +16 x104 +1 x106 +2 x107 +4 x108 +8 x109 +1 x116 +2 x117 +4 x118 +8 x119 +2 x121 +4 x122 +8 x123 +16 x124 +1 x126 +2 x127 +4 x128 +8 x129 +4 x131 +8 x132 +16 x133 +32 x134 +1 x136 +2 x137 +4 x138 +8 x139 +2 x141 +4 x142 +8 x143 +16 x144 +1 x146 +2 x147 +4 x148 +8 x149 +1 x156 +2 x157 +4 x158 +8 x159 +1 x161 +2 x162 +4 x163 +8 x164 +4 x166 +8 x167 +16 x168 +32 x169 +1 x171 +2 x172 +4 x173 +8 x174 +2 x176 +4 x177 +8 x178 +16 x179 +1 x181 +2 x182 +4 x183 +8 x184 +1 x191 +2 x192 +4 x193 +8 x194 +2 x196 +4 x197 +8 x198 +16 x199 +1 x201 +2 x202 +4 x203 +8 x204 +4 x206 +8 x207 +16 x208 +32 x209 +1 x211 +2 x212 +4 x213 +8 x214 +2 x216 +4 x217 +8 x218 +16 x219 +1 x221 +2 x222 +4 x223 +8 x224 +1 x231 +2 x232 +4 x233 +8 x234 +2 x236 +4 x237 +8 x238 +16 x239 +4 x241 +8 x242 +16 x243 +32 x244 +1 x246 +2 x247 +4 x248 +8 x249 +2 x251 +4 x252 +8 x253 +16 x254 +1 x256 +2 x257 +4 x258 +8 x259 +1 x266 +2 x267 +4 x268 +8 x269 +2 x271 +4 x272 +8 x273 +16 x274 +1 x276 +2 x277 +4 x278 +8 x279 +4 x281 +8 x282 +16 x283 +32 x284 +1 x286 +2 x287 +4 x288 +8 x289 +2 x291 +4 x292 +8 x293 +16 x294 +1 x296 +2 x297 +4 x298 +8 x299 +1 x306 +2 x307 +4 x308 +8 x309 +2 x311 +4 x312 +8 x313 +16 x314 +1 x316 +2 x317 +4 x318 +8 x319 +1 x321 +2 x322 +4 x323 +8 x324 +2 x326 +4 x327 +8 x328 +16 x329 +1 x331 +2 x332 +4 x333 +8 x334 +1 x341 +2 x342 +4 x343 +8 x344 +2 x346 +4 x347 +8 x348 +16 x349 +1 x351 +2 x352 +4 x353 +8 x354 +4 x356 +8 x357 +16 x358 +32 x359 +1 x361 +2 x362 +4 x363 +8 x364 +2 x366 +4 x367 +8 x368 +16 x369 +1 x371 +2 x372 +4 x373 +8 x374 +1 x381 +2 x382 +4 x383 +8 x384 +2 x386 +4 x387 +8 x388 +16 x389 +1 x391 +2 x392 +4 x393 +8 x394 +4 x396 +8 x397 +16 x398 +32 x399 +2 x401 +4 x402 +8 x403 +16 x404 +1 x406 +2 x407 +4 x408 +8 x409 +1 x416 +2 x417 +4 x418 +8 x419 +2 x421 +4 x422 +8 x423 +16 x424 +1 x426 +2 x427 +4 x428 +8 x429 +4 x431 +8 x432 +16 x433 +32 x434 +1 x436 +2 x437 +4 x438 +8 x439 +2 x441 +4 x442 +8 x443 +16 x444 +1 x446 +2 x447 +4 x448 +8 x449 +1 x456 +2 x457 +4 x458 +8 x459 +2 x461 +4 x462 +8 x463 +16 x464 +1 x466 +2 x467 +4 x468 +8 x469 +4 x471 +8 x472 +16 x473 +32 x474 +1 x476 +2 x477 +4 x478 +8 x479 +1 x481 +2 x482 +4 x483 +8 x484 +1 x491 +2 x492 +4 x493 +8 x494 +2 x496 +4 x497 +8 x498 +16 x499 +1 x501 +2 x502 +4 x503 +8 x504 +4 x506 +8 x507 +16 x508 +32 x509 +1 x511 +2 x512 +4 x513 +8 x514 +2 x516 +4 x517 +8 x518 +16 x519 +1 x521 +2 x522 +4 x523 +8 x524 +1 x531 +2 x532 +4 x533 +8 x534 +2 x536 +4 x537 +8 x538 +16 x539 +1 x541 +2 x542 +4 x543 +8 x544 +4 x546 +8 x547 +16 x548 +32 x549 +1 x551 +2 x552 +4 x553 +8 x554 +2 x556 +4 x557 +8 x558 +16 x559 +1 x566 +2 x567 +4 x568 +8 x569 +2 x571 +4 x572 +8 x573 +16 x574 +1 x576 +2 x577 +4 x578 +8 x579 +4 x581 +8 x582 +16 x583 +32 x584 +1 x586 +2 x587 +4 x588 +8 x589 +2 x591 +4 x592 +8 x593 +16 x594 +1 x596 +2 x597 +4 x598 +8 x599 +1 x606 +2 x607 +4 x608 +8 x609 +2 x611 +4 x612 +8 x613 +16 x614 +1 x616 +2 x617 +4 x618 +8 x619 +4 x621 +8 x622 +16 x623 +32 x624 +1 x626 +2 x627 +4 x628 +8 x629 +2 x631 +4 x632 +8 x633 +16 x634 +1 x636 +2 x637 +4 x638 +8 x639 >= 8 ;
+2 x1 +4 x2 +8 x3 +16 x4 +2 x6 +4 x7 +8 x8 +16 x9 +2 x11 +4 x12 +8 x13 +16 x14 +4 x16 +8 x17 +16 x18 +32 x19 +2 x21 +4 x22 +8 x23 +16 x24 +2 x26 +4 x27 +8 x28 +16 x29 +2 x31 +4 x32 +8 x33 +16 x34 +8 x36 +16 x37 +32 x38 +64 x39 +2 x41 +4 x42 +8 x43 +16 x44 +2 x46 +4 x47 +8 x48 +16 x49 +2 x51 +4 x52 +8 x53 +16 x54 +4 x56 +8 x57 +16 x58 +32 x59 +2 x61 +4 x62 +8 x63 +16 x64 +2 x66 +4 x67 +8 x68 +16 x69 +2 x71 +4 x72 +8 x73 +16 x74 +2 x81 +4 x82 +8 x83 +16 x84 +2 x86 +4 x87 +8 x88 +16 x89 +4 x91 +8 x92 +16 x93 +32 x94 +2 x96 +4 x97 +8 x98 +16 x99 +2 x101 +4 x102 +8 x103 +16 x104 +2 x106 +4 x107 +8 x108 +16 x109 +8 x111 +16 x112 +32 x113 +64 x114 +2 x116 +4 x117 +8 x118 +16 x119 +2 x121 +4 x122 +8 x123 +16 x124 +2 x126 +4 x127 +8 x128 +16 x129 +4 x131 +8 x132 +16 x133 +32 x134 +2 x136 +4 x137 +8 x138 +16 x139 +2 x141 +4 x142 +8 x143 +16 x144 +2 x146 +4 x147 +8 x148 +16 x149 +2 x156 +4 x157 +8 x158 +16 x159 +2 x161 +4 x162 +8 x163 +16 x164 +4 x166 +8 x167 +16 x168 +32 x169 +2 x171 +4 x172 +8 x173 +16 x174 +2 x176 +4 x177 +8 x178 +16 x179 +2 x181 +4 x182 +8 x183 +16 x184 +8 x186 +16 x187 +32 x188 +64 x189 +2 x191 +4 x192 +8 x193 +16 x194 +2 x196 +4 x197 +8 x198 +16 x199 +2 x201 +4 x202 +8 x203 +16 x204 +4 x206 +8 x207 +16 x208 +32 x209 +2 x211 +4 x212 +8 x213 +16 x214 +2 x216 +4 x217 +8 x218 +16 x219 +2 x221 +4 x222 +8 x223 +16 x224 +2 x231 +4 x232 +8 x233 +16 x234 +2 x236 +4 x237 +8 x238 +16 x239 +4 x241 +8 x242 +16 x243 +32 x244 +2 x246 +4 x247 +8 x248 +16 x249 +2 x251 +4 x252 +8 x253 +16 x254 +2 x256 +4 x257 +8 x258 +16 x259 +8 x261 +16 x262 +32 x263 +64 x264 +2 x266 +4 x267 +8 x268 +16 x269 +2 x271 +4 x272 +8 x273 +16 x274 +2 x276 +4 x277 +8 x278 +16 x279 +4 x281 +8 x282 +16 x283 +32 x284 +2 x286 +4 x287 +8 x288 +16 x289 +2 x291 +4 x292 +8 x293 +16 x294 +2 x296 +4 x297 +8 x298 +16 x299 +2 x306 +4 x307 +8 x308 +16 x309 +2 x311 +4 x312 +8 x313 +16 x314 +2 x316 +4 x317 +8 x318 +16 x319 +2 x321 +4 x322 +8 x323 +16 x324 +2 x326 +4 x327 +8 x328 +16 x329 +2 x331 +4 x332 +8 x333 +16 x334 +8 x336 +16 x337 +32 x338 +64 x339 +2 x341 +4 x342 +8 x343 +16 x344 +2 x346 +4 x347 +8 x348 +16 x349 +2 x351 +4 x352 +8 x353 +16 x354 +4 x356 +8 x357 +16 x358 +32 x359 +2 x361 +4 x362 +8 x363 +16 x364 +2 x366 +4 x367 +8 x368 +16 x369 +2 x371 +4 x372 +8 x373 +16 x374 +2 x381 +4 x382 +8 x383 +16 x384 +2 x386 +4 x387 +8 x388 +16 x389 +2 x391 +4 x392 +8 x393 +16 x394 +4 x396 +8 x397 +16 x398 +32 x399 +2 x401 +4 x402 +8 x403 +16 x404 +2 x406 +4 x407 +8 x408 +16 x409 +8 x411 +16 x412 +32 x413 +64 x414 +2 x416 +4 x417 +8 x418 +16 x419 +2 x421 +4 x422 +8 x423 +16 x424 +2 x426 +4 x427 +8 x428 +16 x429 +4 x431 +8 x432 +16 x433 +32 x434 +2 x436 +4 x437 +8 x438 +16 x439 +2 x441 +4 x442 +8 x443 +16 x444 +2 x446 +4 x447 +8 x448 +16 x449 +2 x456 +4 x457 +8 x458 +16 x459 +2 x461 +4 x462 +8 x463 +16 x464 +2 x466 +4 x467 +8 x468 +16 x469 +4 x471 +8 x472 +16 x473 +32 x474 +2 x476 +4 x477 +8 x478 +16 x479 +2 x481 +4 x482 +8 x483 +16 x484 +8 x486 +16 x487 +32 x488 +64 x489 +2 x491 +4 x492 +8 x493 +16 x494 +2 x496 +4 x497 +8 x498 +16 x499 +2 x501 +4 x502 +8 x503 +16 x504 +4 x506 +8 x507 +16 x508 +32 x509 +2 x511 +4 x512 +8 x513 +16 x514 +2 x516 +4 x517 +8 x518 +16 x519 +2 x521 +4 x522 +8 x523 +16 x524 +2 x531 +4 x532 +8 x533 +16 x534 +2 x536 +4 x537 +8 x538 +16 x539 +2 x541 +4 x542 +8 x543 +16 x544 +4 x546 +8 x547 +16 x548 +32 x549 +2 x551 +4 x552 +8 x553 +16 x554 +2 x556 +4 x557 +8 x558 +16 x559 +8 x561 +16 x562 +32 x563 +64 x564 +2 x566 +4 x567 +8 x568 +16 x569 +2 x571 +4 x572 +8 x573 +16 x574 +2 x576 +4 x577 +8 x578 +16 x579 +4 x581 +8 x582 +16 x583 +32 x584 +2 x586 +4 x587 +8 x588 +16 x589 +2 x591 +4 x592 +8 x593 +16 x594 +2 x596 +4 x597 +8 x598 +16 x599 +2 x606 +4 x607 +8 x608 +16 x609 +2 x611 +4 x612 +8 x613 +16 x614 +2 x616 +4 x617 +8 x618 +16 x619 +4 x621 +8 x622 +16 x623 +32 x624 +2 x626 +4 x627 +8 x628 +16 x629 +2 x631 +4 x632 +8 x633 +16 x634 +2 x636 +4 x637 +8 x638 +16 x639 >= 16 ;
+1 x80 +1 x155 +1 x230 +1 x305 +1 x380 +1 x455 +1 x530 +1 x605 >= 1 ;
+1 x75 +1 x80 +1 x145 +1 x150 +1 x215 +1 x220 +1 x285 +1 x290 +1 x355 +1 x360 +1 x425 +1 x430 +1 x495 +1 x500 +1 x565 +1 x570 >= 1 ;
+1 x70 +1 x75 +1 x135 +1 x140 +1 x205 +1 x270 +1 x275 +1 x335 +1 x340 +1 x405 +1 x475 +1 x480 +1 x540 +1 x545 +1 x605 +1 x610 >= 1 ;
+1 x65 +1 x70 +1 x130 +1 x135 +1 x190 +1 x195 +1 x255 +1 x260 +1 x385 +1 x390 +1 x450 +1 x455 +1 x510 +1 x515 +1 x575 +1 x580 >= 1 ;
+1 x65 +1 x125 +1 x185 +1 x245 +1 x305 +1 x310 +1 x365 +1 x370 +1 x425 +1 x430 +1 x485 +1 x490 +1 x550 +1 x555 +1 x610 +1 x615 >= 1 ;
+1 x60 +1 x65 +1 x115 +1 x120 +1 x175 +1 x235 +1 x240 +1 x295 +1 x350 +1 x405 +1 x410 +1 x470 +1 x525 +1 x530 +1 x580 +1 x585 >= 1 ;
+1 x60 +1 x110 +1 x115 +1 x165 +1 x170 +1 x225 +1 x230 +1 x280 +1 x335 +1 x395 +1 x445 +1 x450 +1 x500 +1 x505 +1 x560 +1 x615 >= 1 ;
+1 x55 +1 x60 +1 x105 +1 x110 +1 x215 +1 x220 +1 x265 +1 x270 +1 x375 +1 x380 +1 x425 +1 x430 +1 x535 +1 x540 +1 x585 +1 x590 >= 1 ;
+1 x55 +1 x105 +1 x155 +1 x160 +1 x205 +1 x210 +1 x255 +1 x260 +1 x310 +1 x360 +1 x410 +1 x465 +1 x515 +1 x565 +1 x615 +1 x620 >= 1 ;
+1 x50 +1 x55 +1 x100 +1 x150 +1 x155 +1 x200 +1 x245 +1 x300 +1 x345 +1 x400 +1 x445 +1 x490 +1 x495 +1 x545 +1 x590 +1 x595 >= 1 ;
+1 x50 +1 x95 +1 x145 +1 x190 +1 x240 +1 x285 +1 x290 +1 x330 +1 x335 +1 x380 +1 x385 +1 x430 +1 x480 +1 x525 +1 x570 +1 x620 >= 1 ;
+1 x50 +1 x90 +1 x95 +1 x140 +1 x185 +1 x230 +1 x235 +1 x275 +1 x370 +1 x410 +1 x415 +1 x460 +1 x505 +1 x550 +1 x555 +1 x595 >= 1 ;
+1 x45 +1 x90 +1 x135 +1 x175 +1 x180 +1 x225 +1 x265 +1 x315 +1 x355 +1 x400 +1 x445 +1 x485 +1 x530 +1 x535 +1 x575 +1 x620 >= 1 ;
+1 x45 +1 x85 +1 x130 +1 x170 +1 x215 +1 x255 +1 x300 +1 x305 +1 x340 +1 x345 +1 x390 +1 x430 +1 x475 +1 x515 +1 x560 +1 x600 >= 1 ;
+1 x45 +1 x85 +1 x125 +1 x165 +1 x210 +1 x250 +1 x290 +1 x330 +1 x375 +1 x415 +1 x455 +1 x460 +1 x495 +1 x540 +1 x580 +1 x625 >= 1 ;
+1 x40 +1 x45 +1 x120 +1 x125 +1 x200 +1 x205 +1 x280 +1 x285 +1 x360 +1 x365 +1 x440 +1 x445 +1 x520 +1 x525 +1 x600 +1 x605 >= 1 ;
+1 x40 +1 x80 +1 x120 +1 x160 +1 x195 +1 x235 +1 x275 +1 x315 +1 x350 +1 x390 +1 x430 +1 x470 +1 x505 +1 x545 +1 x585 +1 x625 >= 1 ;
+1 x40 +1 x80 +1 x110 +1 x150 +1 x185 +1 x225 +1 x255 +1 x295 +1 x330 +1 x370 +1 x440 +1 x480 +1 x515 +1 x555 +1 x585 +1 x625 >= 1 ;
+1 x40 +1 x75 +1 x110 +1 x145 +1 x180 +1 x215 +1 x250 +1 x285 +1 x360 +1 x395 +1 x430 +1 x465 +1 x500 +1 x535 +1 x570 +1 x605 >= 1 ;
+1 x35 +1 x75 +1 x105 +1 x140 +1 x175 +1 x210 +1 x280 +1 x315 +1 x385 +1 x415 +1 x455 +1 x485 +1 x520 +1 x560 +1 x590 +1 x625 >= 1 ;
+1 x35 +1 x70 +1 x140 +1 x170 +1 x205 +1 x240 +1 x270 +1 x305 +1 x340 +1 x375 +1 x405 +1 x440 +1 x475 +1 x505 +1 x575 +1 x610 >= 1 ;
+1 x35 +1 x70 +1 x100 +1 x135 +1 x165 +1 x200 +1 x235 +1 x265 +1 x300 +1 x330 +1 x365 +1 x400 +1 x430 +1 x465 +1 x495 +1 x530 >= 1 ;
+1 x35 +1 x70 +1 x95 +1 x130 +1 x195 +1 x230 +1 x255 +1 x290 +1 x355 +1 x390 +1 x415 +1 x450 +1 x515 +1 x550 +1 x575 +1 x610 >= 1 ;
+1 x35 +1 x65 +1 x95 +1 x160 +1 x190 +1 x250 +1 x285 +1 x315 +1 x345 +1 x380 +1 x405 +1 x440 +1 x500 +1 x535 +1 x595 +1 x630 >= 1 ;
+1 x65 +1 x125 +1 x155 +1 x185 +1 x215 +1 x245 +1 x275 +1 x310 +1 x335 +1 x370 +1 x400 +1 x430 +1 x460 +1 x490 +1 x520 +1 x580 >= 1 ;
+1 x30 +1 x65 +1 x90 +1 x120 +1 x155 +1 x180 +1 x210 +1 x270 +1 x300 +1 x360 +1 x390 +1 x450 +1 x480 +1 x540 +1 x565 +1 x630 >= 1 ;
+1 x30 +1 x60 +1 x120 +1 x150 +1 x175 +1 x205 +1 x265 +1 x295 +1 x350 +1 x380 +1 x440 +1 x470 +1 x495 +1 x525 +1 x585 +1 x615 >= 1 ;
+1 x30 +1 x60 +1 x85 +1 x115 +1 x145 +1 x170 +1 x200 +1 x230 +1 x430 +1 x460 +1 x485 +1 x515 +1 x545 +1 x570 +1 x600 +1 x630 >= 1 ;
+1 x30 +1 x60 +1 x85 +1 x115 +1 x225 +1 x250 +1 x280 +1 x310 +1 x335 +1 x365 +1 x395 +1 x420 +1 x530 +1 x560 +1 x585 +1 x615 >= 1 ;
+1 x30 +1 x110 +1 x140 +1 x165 +1 x220 +1 x245 +1 x275 +1 x305 +1 x355 +1 x385 +1 x410 +1 x490 +1 x520 +1 x550 +1 x600 +1 x630 >= 1 ;
+1 x30 +1 x55 +1 x110 +1 x135 +1 x190 +1 x215 +1 x270 +1 x295 +1 x350 +1 x375 +1 x430 +1 x455 +1 x510 +1 x535 +1 x590 +1 x615 >= 1 ;
+1 x55 +1 x105 +1 x135 +1 x160 +1 x185 +1 x240 +1 x290 +1 x340 +1 x370 +1 x395 +1 x420 +1 x475 +1 x525 +1 x575 +1 x605 +1 x630 >= 1 ;
+1 x55 +1 x80 +1 x105 +1 x130 +1 x180 +1 x235 +1 x285 +1 x310 +1 x335 +1 x360 +1 x410 +1 x465 +1 x515 +1 x540 +1 x565 +1 x590 >= 1 ;
+1 x25 +1 x80 +1 x100 +1 x125 +1 x200 +1 x225 +1 x245 +1 x300 +1 x345 +1 x400 +1 x420 +1 x445 +1 x520 +1 x545 +1 x565 +1 x620 >= 1 ;
+1 x25 +1 x50 +1 x150 +1 x170 +1 x195 +1 x220 +1 x320 +1 x340 +1 x365 +1 x390 +1 x410 +1 x510 +1 x535 +1 x560 +1 x580 +1 x605 >= 1 ;
+1 x25 +1 x50 +1 x75 +1 x95 +1 x120 +1 x145 +1 x165 +1 x190 +1 x455 +1 x480 +1 x500 +1 x525 +1 x550 +1 x570 +1 x595 +1 x620 >= 1 ;
+1 x25 +1 x50 +1 x75 +1 x95 +1 x120 +1 x305 +1 x325 +1 x350 +1 x375 +1 x400 +1 x420 +1 x445 +1 x470 +1 x490 +1 x515 +1 x540 >= 1 ;
+1 x25 +1 x50 +1 x115 +1 x140 +1 x185 +1 x210 +1 x275 +1 x300 +1 x345 +1 x370 +1 x435 +1 x460 +1 x505 +1 x530 +1 x595 +1 x620 >= 1 ;
+1 x25 +1 x90 +1 x115 +1 x180 +1 x205 +1 x230 +1 x270 +1 x295 +1 x320 +1 x385 +1 x405 +1 x475 +1 x495 +1 x520 +1 x585 +1 x610 >= 1 ;
+1 x70 +1 x90 +1 x135 +1 x160 +1 x200 +1 x225 +1 x265 +1 x290 +1 x355 +1 x380 +1 x420 +1 x445 +1 x485 +1 x510 +1 x555 +1 x575 >= 1 ;
+1 x45 +1 x70 +1 x110 +1 x155 +1 x175 +1 x220 +1 x285 +1 x325 +1 x350 +1 x395 +1 x435 +1 x460 +1 x500 +1 x545 +1 x565 +1 x610 >= 1 ;
+1 x45 +1 x85 +1 x130 +1 x155 +1 x170 +1 x195 +1 x240 +1 x280 +1 x365 +1 x405 +1 x450 +1 x475 +1 x490 +1 x515 +1 x560 +1 x600 >= 1 ;
+1 x45 +1 x85 +1 x130 +1 x150 +1 x190 +1 x235 +1 x275 +1 x320 +1 x360 +1 x380 +1 x420 +1 x465 +1 x505 +1 x550 +1 x590 +1 x635 >= 1 ;
+1 x45 +1 x65 +1 x105 +1 x165 +1 x210 +1 x230 +1 x270 +1 x315 +1 x330 +1 x375 +1 x415 +1 x435 +1 x480 +1 x540 +1 x580 +1 x600 >= 1 ;
+1 x65 +1 x125 +1 x145 +1 x185 +1 x205 +1 x245 +1 x265 +1 x310 +1 x325 +1 x390 +1 x450 +1 x510 +1 x530 +1 x570 +1 x590 +1 x635 >= 1 ;
+1 x20 +1 x65 +1 x100 +1 x145 +1 x180 +1 x225 +1 x260 +1 x305 +1 x340 +1 x385 +1 x420 +1 x465 +1 x500 +1 x545 +1 x580 +1 x625 >= 1 ;
+1 x20 +1 x100 +1 x120 +1 x200 +1 x220 +1 x240 +1 x300 +1 x320 +1 x335 +1 x415 +1 x435 +1 x455 +1 x515 +1 x535 +1 x555 +1 x635 >= 1 ;
+1 x20 +1 x40 +1 x140 +1 x160 +1 x175 +1 x195 +1 x295 +1 x315 +1 x330 +1 x350 +1 x450 +1 x470 +1 x485 +1 x505 +1 x605 +1 x625 >= 1 ;
+1 x20 +1 x40 +1 x60 +1 x80 +1 x250 +1 x270 +1 x290 +1 x310 +1 x325 +1 x345 +1 x365 +1 x385 +1 x575 +1 x595 +1 x615 +1 x635 >= 1 ;
+1 x20 +1 x40 +1 x60 +1 x80 +1 x260 +1 x280 +1 x300 +1 x320 +1 x335 +1 x355 +1 x375 +1 x395 +1 x575 +1 x595 +1 x615 +1 x635 >= 1 ;
+1 x20 +1 x40 +1 x130 +1 x150 +1 x165 +1 x185 +1 x295 +1 x315 +1 x330 +1 x350 +1 x460 +1 x480 +1 x495 +1 x515 +1 x605 +1 x625 >= 1 ;
+1 x20 +1 x90 +1 x110 +1 x130 +1 x200 +1 x220 +1 x240 +1 x310 +1 x325 +1 x345 +1 x415 +1 x435 +1 x455 +1 x525 +1 x545 +1 x635 >= 1 ;
+1 x20 +1 x75 +1 x90 +1 x145 +1 x180 +1 x235 +1 x250 +1 x305 +1 x340 +1 x395 +1 x410 +1 x465 +1 x500 +1 x555 +1 x570 +1 x625 >= 1 ;
+1 x55 +1 x75 +1 x125 +1 x145 +1 x195 +1 x245 +1 x265 +1 x320 +1 x335 +1 x390 +1 x440 +1 x460 +1 x510 +1 x530 +1 x580 +1 x635 >= 1 ;
+1 x55 +1 x105 +1 x160 +1 x210 +1 x230 +1 x260 +1 x280 +1 x315 +1 x330 +1 x365 +1 x385 +1 x415 +1 x435 +1 x485 +1 x540 +1 x590 >= 1 ;
+1 x55 +1 x85 +1 x140 +1 x190 +1 x225 +1 x275 +1 x325 +1 x360 +1 x380 +1 x410 +1 x465 +1 x495 +1 x515 +1 x550 +1 x600 +1 x635 >= 1 ;
+1 x35 +1 x85 +1 x120 +1 x155 +1 x170 +1 x205 +1 x240 +1 x290 +1 x355 +1 x405 +1 x440 +1 x475 +1 x490 +1 x525 +1 x560 +1 x610 >= 1 ;
+1 x35 +1 x70 +1 x100 +1 x155 +1 x185 +1 x220 +1 x250 +1 x285 +1 x320 +1 x350 +1 x435 +1 x470 +1 x500 +1 x535 +1 x565 +1 x600 >= 1 ;
+1 x35 +1 x70 +1 x100 +1 x135 +1 x165 +1 x200 +1 x235 +1 x265 +1 x380 +1 x410 +1 x445 +1 x480 +1 x510 +1 x545 +1 x575 +1 x610 >= 1 ;
+1 x35 +1 x115 +1 x150 +1 x180 +1 x230 +1 x260 +1 x295 +1 x325 +1 x375 +1 x405 +1 x440 +1 x475 +1 x520 +1 x555 +1 x585 +1 x620 >= 1 ;
+1 x35 +1 x50 +1 x115 +1 x130 +1 x195 +1 x210 +1 x275 +1 x290 +1 x355 +1 x370 +1 x435 +1 x450 +1 x515 +1 x530 +1 x595 +1 x610 >= 1 ;
+1 x50 +1 x95 +1 x130 +1 x175 +1 x225 +1 x270 +1 x305 +1 x320 +1 x350 +1 x400 +1 x445 +1 x490 +1 x525 +1 x540 +1 x570 +1 x620 >= 1 ;
+1 x50 +1 x95 +1 x145 +1 x160 +1 x190 +1 x205 +1 x250 +1 x300 +1 x345 +1 x395 +1 x440 +1 x455 +1 x485 +1 x500 +1 x550 +1 x595 >= 1 ;
+1 x50 +1 x65 +1 x110 +1 x170 +1 x220 +1 x235 +1 x280 +1 x325 +1 x340 +1 x390 +1 x450 +1 x495 +1 x510 +1 x560 +1 x605 +1 x620 >= 1 ;
+1 x65 +1 x80 +1 x125 +1 x140 +1 x185 +1 x200 +1 x245 +1 x260 +1 x385 +1 x400 +1 x445 +1 x460 +1 x505 +1 x520 +1 x565 +1 x580 >= 1 ;
+1 x15 +1 x80 +1 x90 +1 x105 +1 x180 +1 x195 +1 x270 +1 x285 +1 x360 +1 x375 +1 x450 +1 x465 +1 x540 +1 x555 +1 x565 +1 x630 >= 1 ;
+1 x15 +1 x105 +1 x120 +1 x135 +1 x225 +1 x240 +1 x250 +1 x340 +1 x355 +1 x370 +1 x460 +1 x475 +1 x485 +1 x575 +1 x590 +1 x605 >= 1 ;
+1 x15 +1 x30 +1 x135 +1 x150 +1 x175 +1 x190 +1 x295 +1 x310 +1 x335 +1 x350 +1 x455 +1 x470 +1 x495 +1 x510 +1 x615 +1 x630 >= 1 ;
+1 x15 +1 x30 +1 x45 +1 x220 +1 x235 +1 x245 +1 x260 +1 x275 +1 x290 +1 x305 +1 x480 +1 x490 +1 x505 +1 x520 +1 x535 +1 x550 >= 1 ;
+1 x15 +1 x30 +1 x45 +1 x60 +1 x75 +1 x85 +1 x100 +1 x115 +1 x530 +1 x545 +1 x560 +1 x570 +1 x585 +1 x600 +1 x615 +1 x630 >= 1 ;
+1 x15 +1 x30 +1 x45 +1 x60 +1 x75 +1 x85 +1 x100 +1 x115 +1 x130 +1 x145 +1 x160 +1 x170 +1 x185 +1 x200 +1 x215 +1 x230 >= 1 ;
+1 x15 +1 x30 +1 x45 +1 x60 +1 x265 +1 x280 +1 x295 +1 x310 +1 x335 +1 x350 +1 x365 +1 x380 +1 x585 +1 x600 +1 x615 +1 x630 >= 1 ;
+1 x15 +1 x30 +1 x155 +1 x165 +1 x180 +1 x195 +1 x210 +1 x345 +1 x360 +1 x375 +1 x390 +1 x525 +1 x540 +1 x555 +1 x565 +1 x580 >= 1 ;
+1 x15 +1 x110 +1 x125 +1 x140 +1 x155 +1 x245 +1 x260 +1 x275 +1 x370 +1 x385 +1 x400 +1 x490 +1 x505 +1 x520 +1 x535 +1 x630 >= 1 ;
+1 x15 +1 x95 +1 x110 +1 x190 +1 x205 +1 x285 +1 x300 +1 x315 +1 x380 +1 x395 +1 x405 +1 x485 +1 x500 +1 x580 +1 x595 +1 x610 >= 1 ;
+1 x15 +1 x70 +1 x95 +1 x150 +1 x175 +1 x230 +1 x255 +1 x310 +1 x335 +1 x390 +1 x415 +1 x470 +1 x495 +1 x550 +1 x575 +1 x630 >= 1 ;
+1 x70 +1 x135 +1 x150 +1 x200 +1 x215 +1 x265 +1 x280 +1 x330 +1 x345 +1 x400 +1 x410 +1 x465 +1 x480 +1 x530 +1 x545 +1 x610 >= 1 ;
+1 x55 +1 x70 +1 x120 +1 x170 +1 x185 +1 x240 +1 x290 +1 x305 +1 x340 +1 x355 +1 x405 +1 x460 +1 x475 +1 x525 +1 x575 +1 x590 >= 1 ;
+1 x55 +1 x105 +1 x160 +1 x210 +1 x260 +1 x315 +1 x365 +1 x415 +1 x455 +1 x470 +1 x505 +1 x520 +1 x560 +1 x570 +1 x610 +1 x625 >= 1 ;
+1 x40 +1 x55 +1 x90 +1 x145 +1 x180 +1 x235 +1 x270 +1 x285 +1 x360 +1 x375 +1 x410 +1 x465 +1 x500 +1 x555 +1 x590 +1 x605 >= 1 ;
+1 x40 +1 x80 +1 x90 +1 x130 +1 x165 +1 x205 +1 x255 +1 x295 +1 x330 +1 x370 +1 x420 +1 x460 +1 x495 +1 x535 +1 x585 +1 x625 >= 1 ;
+1 x40 +1 x80 +1 x100 +1 x140 +1 x175 +1 x215 +1 x275 +1 x315 +1 x350 +1 x390 +1 x410 +1 x450 +1 x485 +1 x525 +1 x585 +1 x625 >= 1 ;
+1 x40 +1 x65 +1 x100 +1 x125 +1 x200 +1 x225 +1 x260 +1 x285 +1 x360 +1 x385 +1 x420 +1 x445 +1 x520 +1 x545 +1 x580 +1 x605 >= 1 ;
+1 x65 +1 x85 +1 x125 +1 x150 +1 x185 +1 x210 +1 x270 +1 x330 +1 x355 +1 x395 +1 x415 +1 x455 +1 x480 +1 x540 +1 x600 +1 x625 >= 1 ;
+1 x25 +1 x85 +1 x110 +1 x170 +1 x195 +1 x255 +1 x280 +1 x305 +1 x340 +1 x365 +1 x390 +1 x450 +1 x475 +1 x535 +1 x560 +1 x620 >= 1 ;
+1 x25 +1 x110 +1 x135 +1 x160 +1 x180 +1 x265 +1 x290 +1 x315 +1 x400 +1 x420 +1 x445 +1 x470 +1 x530 +1 x555 +1 x575 +1 x600 >= 1 ;
+1 x25 +1 x50 +1 x75 +1 x95 +1 x230 +1 x250 +1 x275 +1 x300 +1 x345 +1 x370 +1 x395 +1 x415 +1 x550 +1 x570 +1 x595 +1 x620 >= 1 ;
+1 x25 +1 x50 +1 x75 +1 x95 +1 x120 +1 x145 +1 x165 +1 x190 +1 x215 +1 x240 +1 x260 +1 x285 +1 x310 +1 x330 +1 x355 +1 x380 >= 1 ;
+1 x25 +1 x50 +1 x155 +1 x175 +1 x200 +1 x225 +1 x245 +1 x270 +1 x375 +1 x400 +1 x420 +1 x445 +1 x470 +1 x490 +1 x595 +1 x620 >= 1 ;
+1 x25 +1 x105 +1 x130 +1 x155 +1 x210 +1 x235 +1 x255 +1 x335 +1 x360 +1 x385 +1 x440 +1 x465 +1 x485 +1 x565 +1 x590 +1 x615 >= 1 ;
+1 x25 +1 x60 +1 x105 +1 x140 +1 x185 +1 x220 +1 x265 +1 x300 +1 x345 +1 x380 +1 x425 +1 x460 +1 x505 +1 x540 +1 x585 +1 x620 >= 1 ;
+1 x60 +1 x115 +1 x140 +1 x170 +1 x195 +1 x230 +1 x250 +1 x310 +1 x365 +1 x420 +1 x445 +1 x480 +1 x500 +1 x535 +1 x560 +1 x615 >= 1 ;
+1 x60 +1 x90 +1 x115 +1 x150 +1 x205 +1 x240 +1 x260 +1 x295 +1 x350 +1 x385 +1 x405 +1 x440 +1 x495 +1 x530 +1 x555 +1 x585 >= 1 ;
+1 x35 +1 x90 +1 x125 +1 x160 +1 x215 +1 x245 +1 x280 +1 x305 +1 x335 +1 x370 +1 x425 +1 x460 +1 x490 +1 x550 +1 x580 +1 x615 >= 1 ;
+1 x35 +1 x70 +1 x100 +1 x135 +1 x190 +1 x225 +1 x255 +1 x290 +1 x355 +1 x390 +1 x420 +1 x455 +1 x510 +1 x545 +1 x575 +1 x610 >= 1 ;
+1 x35 +1 x70 +1 x100 +1 x135 +1 x165 +1 x275 +1 x310 +1 x340 +1 x375 +1 x405 +1 x440 +1 x475 +1 x505 +1 x540 +1 x570 +1 x605 >= 1 ;
+1 x35 +1 x80 +1 x110 +1 x145 +1 x175 +1 x220 +1 x250 +1 x285 +1 x360 +1 x395 +1 x425 +1 x470 +1 x500 +1 x535 +1 x565 +1 x610 >= 1 ;
+1 x45 +1 x80 +1 x85 +1 x120 +1 x205 +1 x240 +1 x245 +1 x280 +1 x365 +1 x400 +1 x405 +1 x440 +1 x525 +1 x560 +1 x565 +1 x600 >= 1 ;
+1 x45 +1 x85 +1 x130 +1 x170 +1 x215 +1 x255 +1 x300 +1 x340 +1 x385 +1 x425 +1 x470 +1 x510 +1 x555 +1 x595 +1 x605 +1 x640 >= 1 ;
+1 x45 +1 x95 +1 x140 +1 x180 +1 x190 +1 x235 +1 x275 +1 x320 +1 x325 +1 x370 +1 x410 +1 x455 +1 x465 +1 x505 +1 x550 +1 x600 >= 1 ;
+1 x55 +1 x95 +1 x105 +1 x150 +1 x200 +1 x250 +1 x295 +1 x305 +1 x345 +1 x400 +1 x440 +1 x450 +1 x490 +1 x545 +1 x595 +1 x640 >= 1 ;
+1 x55 +1 x105 +1 x115 +1 x160 +1 x165 +1 x210 +1 x220 +1 x270 +1 x375 +1 x425 +1 x435 +1 x480 +1 x485 +1 x530 +1 x540 +1 x590 >= 1 ;
+1 x55 +1 x65 +1 x115 +1 x125 +1 x175 +1 x230 +1 x240 +1 x290 +1 x300 +1 x350 +1 x410 +1 x465 +1 x475 +1 x525 +1 x585 +1 x640 >= 1 ;
+1 x65 +1 x75 +1 x125 +1 x135 +1 x195 +1 x255 +1 x265 +1 x320 +1 x325 +1 x380 +1 x390 +1 x450 +1 x510 +1 x520 +1 x570 +1 x580 >= 1 ;
+1 x75 +1 x145 +1 x155 +1 x215 +1 x225 +1 x285 +1 x295 +1 x355 +1 x365 +1 x425 +1 x435 +1 x495 +1 x505 +1 x565 +1 x575 +1 x640 >= 1 ;
+1 x10 +1 x75 +1 x90 +1 x155 +1 x170 +1 x235 +1 x250 +1 x315 +1 x330 +1 x395 +1 x410 +1 x475 +1 x490 +1 x555 +1 x570 +1 x635 >= 1 ;
+1 x10 +1 x90 +1 x100 +1 x180 +1 x190 +1 x270 +1 x280 +1 x360 +1 x370 +1 x380 +1 x450 +1 x460 +1 x470 +1 x550 +1 x560 +1 x640 >= 1 ;
+1 x10 +1 x100 +1 x110 +1 x120 +1 x210 +1 x220 +1 x230 +1 x320 +1 x325 +1 x415 +1 x425 +1 x435 +1 x525 +1 x535 +1 x545 +1 x635 >= 1 ;
+1 x10 +1 x120 +1 x130 +1 x140 +1 x245 +1 x255 +1 x265 +1 x375 +1 x385 +1 x395 +1 x500 +1 x510 +1 x520 +1 x530 +1 x630 +1 x640 >= 1 ;
+1 x10 +1 x20 +1 x150 +1 x160 +1 x165 +1 x175 +1 x305 +1 x315 +1 x330 +1 x340 +1 x470 +1 x480 +1 x485 +1 x495 +1 x625 +1 x635 >= 1 ;
+1 x10 +1 x20 +1 x195 +1 x205 +1 x215 +1 x225 +1 x235 +1 x405 +1 x415 +1 x425 +1 x435 +1 x445 +1 x455 +1 x620 +1 x630 +1 x640 >= 1 ;
+1 x10 +1 x20 +1 x30 +1 x40 +1 x290 +1 x300 +1 x310 +1 x320 +1 x325 +1 x335 +1 x345 +1 x355 +1 x605 +1 x615 +1 x625 +1 x635 >= 1 ;
+1 x10 +1 x20 +1 x30 +1 x40 +1 x50 +1 x60 +1 x70 +1 x80 +1 x570 +1 x580 +1 x590 +1 x600 +1 x610 +1 x620 +1 x630 +1 x640 >= 1 ;
