* #variable= 600 #constraint= 1155
* p=401; level=2; irredundant branch only; INPUT NOT AN UNSAT PROOF
+1 x1 +1 x2 +1 x3 +1 x4 +1 x5 +1 x6 +1 x7 +1 x8 +1 x9 +1 x10 +1 x11 +1 x12 +1 x13 +1 x14 +1 x15 +1 x16 +1 x17 +1 x18 +1 x19 +1 x20 +1 x21 +1 x22 +1 x23 +1 x24 +1 x25 +1 x26 +1 x27 +1 x28 +1 x29 +1 x30 +1 x31 +1 x32 +1 x33 +1 x34 +1 x35 +1 x36 +1 x37 +1 x38 +1 x39 +1 x40 +1 x41 +1 x42 +1 x43 +1 x44 +1 x45 +1 x46 +1 x47 +1 x48 +1 x49 +1 x50 +1 x51 +1 x52 +1 x53 +1 x54 +1 x55 +1 x56 +1 x57 +1 x58 +1 x59 +1 x60 +1 x61 +1 x62 +1 x63 +1 x64 +1 x65 +1 x66 +1 x67 +1 x68 +1 x69 +1 x70 +1 x71 +1 x72 +1 x73 +1 x74 +1 x75 +1 x76 +1 x77 +1 x78 +1 x79 +1 x80 +1 x81 +1 x82 +1 x83 +1 x84 +1 x85 +1 x86 +1 x87 +1 x88 +1 x89 +1 x90 +1 x91 +1 x92 +1 x93 +1 x94 +1 x95 +1 x96 +1 x97 +1 x98 +1 x99 +1 x100 +1 x101 +1 x102 +1 x103 +1 x104 +1 x105 +1 x106 +1 x107 +1 x108 +1 x109 +1 x110 +1 x111 +1 x112 +1 x113 +1 x114 +1 x115 +1 x116 +1 x117 +1 x118 +1 x119 +1 x120 +1 x121 +1 x122 +1 x123 +1 x124 +1 x125 +1 x126 +1 x127 +1 x128 +1 x129 +1 x130 +1 x131 +1 x132 +1 x133 +1 x134 +1 x135 +1 x136 +1 x137 +1 x138 +1 x139 +1 x140 +1 x141 +1 x142 +1 x143 +1 x144 +1 x145 +1 x146 +1 x147 +1 x148 +1 x149 +1 x150 +1 x151 +1 x152 +1 x153 +1 x154 +1 x155 +1 x156 +1 x157 +1 x158 +1 x159 +1 x160 +1 x161 +1 x162 +1 x163 +1 x164 +1 x165 +1 x166 +1 x167 +1 x168 +1 x169 +1 x170 +1 x171 +1 x172 +1 x173 +1 x174 +1 x175 +1 x176 +1 x177 +1 x178 +1 x179 +1 x180 +1 x181 +1 x182 +1 x183 +1 x184 +1 x185 +1 x186 +1 x187 +1 x188 +1 x189 +1 x190 +1 x191 +1 x192 +1 x193 +1 x194 +1 x195 +1 x196 +1 x197 +1 x198 +1 x199 +1 x200 +1 x201 +1 x202 +1 x203 +1 x204 +1 x205 +1 x206 +1 x207 +1 x208 +1 x209 +1 x210 +1 x211 +1 x212 +1 x213 +1 x214 +1 x215 +1 x216 +1 x217 +1 x218 +1 x219 +1 x220 +1 x221 +1 x222 +1 x223 +1 x224 +1 x225 +1 x226 +1 x227 +1 x228 +1 x229 +1 x230 +1 x231 +1 x232 +1 x233 +1 x234 +1 x235 +1 x236 +1 x237 +1 x238 +1 x239 +1 x240 +1 x241 +1 x242 +1 x243 +1 x244 +1 x245 +1 x246 +1 x247 +1 x248 +1 x249 +1 x250 +1 x251 +1 x252 +1 x253 +1 x254 +1 x255 +1 x256 +1 x257 +1 x258 +1 x259 +1 x260 +1 x261 +1 x262 +1 x263 +1 x264 +1 x265 +1 x266 +1 x267 +1 x268 +1 x269 +1 x270 +1 x271 +1 x272 +1 x273 +1 x274 +1 x275 +1 x276 +1 x277 +1 x278 +1 x279 +1 x280 +1 x281 +1 x282 +1 x283 +1 x284 +1 x285 +1 x286 +1 x287 +1 x288 +1 x289 +1 x290 +1 x291 +1 x292 +1 x293 +1 x294 +1 x295 +1 x296 +1 x297 +1 x298 +1 x299 +1 x300 +1 x301 +1 x302 +1 x303 +1 x304 +1 x305 +1 x306 +1 x307 +1 x308 +1 x309 +1 x310 +1 x311 +1 x312 +1 x313 +1 x314 +1 x315 +1 x316 +1 x317 +1 x318 +1 x319 +1 x320 +1 x321 +1 x322 +1 x323 +1 x324 +1 x325 +1 x326 +1 x327 +1 x328 +1 x329 +1 x330 +1 x331 +1 x332 +1 x333 +1 x334 +1 x335 +1 x336 +1 x337 +1 x338 +1 x339 +1 x340 +1 x341 +1 x342 +1 x343 +1 x344 +1 x345 +1 x346 +1 x347 +1 x348 +1 x349 +1 x350 +1 x351 +1 x352 +1 x353 +1 x354 +1 x355 +1 x356 +1 x357 +1 x358 +1 x359 +1 x360 +1 x361 +1 x362 +1 x363 +1 x364 +1 x365 +1 x366 +1 x367 +1 x368 +1 x369 +1 x370 +1 x371 +1 x372 +1 x373 +1 x374 +1 x375 +1 x376 +1 x377 +1 x378 +1 x379 +1 x380 +1 x381 +1 x382 +1 x383 +1 x384 +1 x385 +1 x386 +1 x387 +1 x388 +1 x389 +1 x390 +1 x391 +1 x392 +1 x393 +1 x394 +1 x395 +1 x396 +1 x397 +1 x398 +1 x399 +1 x400 >= 15 ;
-1 x1 -1 x2 -1 x3 -1 x4 -1 x5 -1 x6 -1 x7 -1 x8 -1 x9 -1 x10 -1 x11 -1 x12 -1 x13 -1 x14 -1 x15 -1 x16 -1 x17 -1 x18 -1 x19 -1 x20 -1 x21 -1 x22 -1 x23 -1 x24 -1 x25 -1 x26 -1 x27 -1 x28 -1 x29 -1 x30 -1 x31 -1 x32 -1 x33 -1 x34 -1 x35 -1 x36 -1 x37 -1 x38 -1 x39 -1 x40 -1 x41 -1 x42 -1 x43 -1 x44 -1 x45 -1 x46 -1 x47 -1 x48 -1 x49 -1 x50 -1 x51 -1 x52 -1 x53 -1 x54 -1 x55 -1 x56 -1 x57 -1 x58 -1 x59 -1 x60 -1 x61 -1 x62 -1 x63 -1 x64 -1 x65 -1 x66 -1 x67 -1 x68 -1 x69 -1 x70 -1 x71 -1 x72 -1 x73 -1 x74 -1 x75 -1 x76 -1 x77 -1 x78 -1 x79 -1 x80 -1 x81 -1 x82 -1 x83 -1 x84 -1 x85 -1 x86 -1 x87 -1 x88 -1 x89 -1 x90 -1 x91 -1 x92 -1 x93 -1 x94 -1 x95 -1 x96 -1 x97 -1 x98 -1 x99 -1 x100 -1 x101 -1 x102 -1 x103 -1 x104 -1 x105 -1 x106 -1 x107 -1 x108 -1 x109 -1 x110 -1 x111 -1 x112 -1 x113 -1 x114 -1 x115 -1 x116 -1 x117 -1 x118 -1 x119 -1 x120 -1 x121 -1 x122 -1 x123 -1 x124 -1 x125 -1 x126 -1 x127 -1 x128 -1 x129 -1 x130 -1 x131 -1 x132 -1 x133 -1 x134 -1 x135 -1 x136 -1 x137 -1 x138 -1 x139 -1 x140 -1 x141 -1 x142 -1 x143 -1 x144 -1 x145 -1 x146 -1 x147 -1 x148 -1 x149 -1 x150 -1 x151 -1 x152 -1 x153 -1 x154 -1 x155 -1 x156 -1 x157 -1 x158 -1 x159 -1 x160 -1 x161 -1 x162 -1 x163 -1 x164 -1 x165 -1 x166 -1 x167 -1 x168 -1 x169 -1 x170 -1 x171 -1 x172 -1 x173 -1 x174 -1 x175 -1 x176 -1 x177 -1 x178 -1 x179 -1 x180 -1 x181 -1 x182 -1 x183 -1 x184 -1 x185 -1 x186 -1 x187 -1 x188 -1 x189 -1 x190 -1 x191 -1 x192 -1 x193 -1 x194 -1 x195 -1 x196 -1 x197 -1 x198 -1 x199 -1 x200 -1 x201 -1 x202 -1 x203 -1 x204 -1 x205 -1 x206 -1 x207 -1 x208 -1 x209 -1 x210 -1 x211 -1 x212 -1 x213 -1 x214 -1 x215 -1 x216 -1 x217 -1 x218 -1 x219 -1 x220 -1 x221 -1 x222 -1 x223 -1 x224 -1 x225 -1 x226 -1 x227 -1 x228 -1 x229 -1 x230 -1 x231 -1 x232 -1 x233 -1 x234 -1 x235 -1 x236 -1 x237 -1 x238 -1 x239 -1 x240 -1 x241 -1 x242 -1 x243 -1 x244 -1 x245 -1 x246 -1 x247 -1 x248 -1 x249 -1 x250 -1 x251 -1 x252 -1 x253 -1 x254 -1 x255 -1 x256 -1 x257 -1 x258 -1 x259 -1 x260 -1 x261 -1 x262 -1 x263 -1 x264 -1 x265 -1 x266 -1 x267 -1 x268 -1 x269 -1 x270 -1 x271 -1 x272 -1 x273 -1 x274 -1 x275 -1 x276 -1 x277 -1 x278 -1 x279 -1 x280 -1 x281 -1 x282 -1 x283 -1 x284 -1 x285 -1 x286 -1 x287 -1 x288 -1 x289 -1 x290 -1 x291 -1 x292 -1 x293 -1 x294 -1 x295 -1 x296 -1 x297 -1 x298 -1 x299 -1 x300 -1 x301 -1 x302 -1 x303 -1 x304 -1 x305 -1 x306 -1 x307 -1 x308 -1 x309 -1 x310 -1 x311 -1 x312 -1 x313 -1 x314 -1 x315 -1 x316 -1 x317 -1 x318 -1 x319 -1 x320 -1 x321 -1 x322 -1 x323 -1 x324 -1 x325 -1 x326 -1 x327 -1 x328 -1 x329 -1 x330 -1 x331 -1 x332 -1 x333 -1 x334 -1 x335 -1 x336 -1 x337 -1 x338 -1 x339 -1 x340 -1 x341 -1 x342 -1 x343 -1 x344 -1 x345 -1 x346 -1 x347 -1 x348 -1 x349 -1 x350 -1 x351 -1 x352 -1 x353 -1 x354 -1 x355 -1 x356 -1 x357 -1 x358 -1 x359 -1 x360 -1 x361 -1 x362 -1 x363 -1 x364 -1 x365 -1 x366 -1 x367 -1 x368 -1 x369 -1 x370 -1 x371 -1 x372 -1 x373 -1 x374 -1 x375 -1 x376 -1 x377 -1 x378 -1 x379 -1 x380 -1 x381 -1 x382 -1 x383 -1 x384 -1 x385 -1 x386 -1 x387 -1 x388 -1 x389 -1 x390 -1 x391 -1 x392 -1 x393 -1 x394 -1 x395 -1 x396 -1 x397 -1 x398 -1 x399 -1 x400 >= -15 ;
+1 x1 +1 x3 +1 x5 +1 x7 +1 x9 +1 x11 +1 x13 +1 x15 +1 x17 +1 x19 +1 x21 +1 x23 +1 x25 +1 x27 +1 x29 +1 x31 +1 x33 +1 x35 +1 x37 +1 x39 +1 x41 +1 x43 +1 x45 +1 x47 +1 x49 +1 x51 +1 x53 +1 x55 +1 x57 +1 x59 +1 x61 +1 x63 +1 x65 +1 x67 +1 x69 +1 x71 +1 x73 +1 x75 +1 x77 +1 x79 +1 x81 +1 x83 +1 x85 +1 x87 +1 x89 +1 x91 +1 x93 +1 x95 +1 x97 +1 x99 +1 x101 +1 x103 +1 x105 +1 x107 +1 x109 +1 x111 +1 x113 +1 x115 +1 x117 +1 x119 +1 x121 +1 x123 +1 x125 +1 x127 +1 x129 +1 x131 +1 x133 +1 x135 +1 x137 +1 x139 +1 x141 +1 x143 +1 x145 +1 x147 +1 x149 +1 x151 +1 x153 +1 x155 +1 x157 +1 x159 +1 x161 +1 x163 +1 x165 +1 x167 +1 x169 +1 x171 +1 x173 +1 x175 +1 x177 +1 x179 +1 x181 +1 x183 +1 x185 +1 x187 +1 x189 +1 x191 +1 x193 +1 x195 +1 x197 +1 x199 +1 x201 +1 x203 +1 x205 +1 x207 +1 x209 +1 x211 +1 x213 +1 x215 +1 x217 +1 x219 +1 x221 +1 x223 +1 x225 +1 x227 +1 x229 +1 x231 +1 x233 +1 x235 +1 x237 +1 x239 +1 x241 +1 x243 +1 x245 +1 x247 +1 x249 +1 x251 +1 x253 +1 x255 +1 x257 +1 x259 +1 x261 +1 x263 +1 x265 +1 x267 +1 x269 +1 x271 +1 x273 +1 x275 +1 x277 +1 x279 +1 x281 +1 x283 +1 x285 +1 x287 +1 x289 +1 x291 +1 x293 +1 x295 +1 x297 +1 x299 +1 x301 +1 x303 +1 x305 +1 x307 +1 x309 +1 x311 +1 x313 +1 x315 +1 x317 +1 x319 +1 x321 +1 x323 +1 x325 +1 x327 +1 x329 +1 x331 +1 x333 +1 x335 +1 x337 +1 x339 +1 x341 +1 x343 +1 x345 +1 x347 +1 x349 +1 x351 +1 x353 +1 x355 +1 x357 +1 x359 +1 x361 +1 x363 +1 x365 +1 x367 +1 x369 +1 x371 +1 x373 +1 x375 +1 x377 +1 x379 +1 x381 +1 x383 +1 x385 +1 x387 +1 x389 +1 x391 +1 x393 +1 x395 +1 x397 +1 x399 >= 2 ;
+1 x1 >= 1 ;
-1 x1 -1 x400 >= -1 ;
-1 x2 -1 x399 >= -1 ;
-1 x3 -1 x398 >= -1 ;
-1 x4 -1 x397 >= -1 ;
-1 x5 -1 x396 >= -1 ;
-1 x6 -1 x395 >= -1 ;
-1 x7 -1 x394 >= -1 ;
-1 x8 -1 x393 >= -1 ;
-1 x9 -1 x392 >= -1 ;
-1 x10 -1 x391 >= -1 ;
-1 x11 -1 x390 >= -1 ;
-1 x12 -1 x389 >= -1 ;
-1 x13 -1 x388 >= -1 ;
-1 x14 -1 x387 >= -1 ;
-1 x15 -1 x386 >= -1 ;
-1 x16 -1 x385 >= -1 ;
-1 x17 -1 x384 >= -1 ;
-1 x18 -1 x383 >= -1 ;
-1 x19 -1 x382 >= -1 ;
-1 x20 -1 x381 >= -1 ;
-1 x21 -1 x380 >= -1 ;
-1 x22 -1 x379 >= -1 ;
-1 x23 -1 x378 >= -1 ;
-1 x24 -1 x377 >= -1 ;
-1 x25 -1 x376 >= -1 ;
-1 x26 -1 x375 >= -1 ;
-1 x27 -1 x374 >= -1 ;
-1 x28 -1 x373 >= -1 ;
-1 x29 -1 x372 >= -1 ;
-1 x30 -1 x371 >= -1 ;
-1 x31 -1 x370 >= -1 ;
-1 x32 -1 x369 >= -1 ;
-1 x33 -1 x368 >= -1 ;
-1 x34 -1 x367 >= -1 ;
-1 x35 -1 x366 >= -1 ;
-1 x36 -1 x365 >= -1 ;
-1 x37 -1 x364 >= -1 ;
-1 x38 -1 x363 >= -1 ;
-1 x39 -1 x362 >= -1 ;
-1 x40 -1 x361 >= -1 ;
-1 x41 -1 x360 >= -1 ;
-1 x42 -1 x359 >= -1 ;
-1 x43 -1 x358 >= -1 ;
-1 x44 -1 x357 >= -1 ;
-1 x45 -1 x356 >= -1 ;
-1 x46 -1 x355 >= -1 ;
-1 x47 -1 x354 >= -1 ;
-1 x48 -1 x353 >= -1 ;
-1 x49 -1 x352 >= -1 ;
-1 x50 -1 x351 >= -1 ;
-1 x51 -1 x350 >= -1 ;
-1 x52 -1 x349 >= -1 ;
-1 x53 -1 x348 >= -1 ;
-1 x54 -1 x347 >= -1 ;
-1 x55 -1 x346 >= -1 ;
-1 x56 -1 x345 >= -1 ;
-1 x57 -1 x344 >= -1 ;
-1 x58 -1 x343 >= -1 ;
-1 x59 -1 x342 >= -1 ;
-1 x60 -1 x341 >= -1 ;
-1 x61 -1 x340 >= -1 ;
-1 x62 -1 x339 >= -1 ;
-1 x63 -1 x338 >= -1 ;
-1 x64 -1 x337 >= -1 ;
-1 x65 -1 x336 >= -1 ;
-1 x66 -1 x335 >= -1 ;
-1 x67 -1 x334 >= -1 ;
-1 x68 -1 x333 >= -1 ;
-1 x69 -1 x332 >= -1 ;
-1 x70 -1 x331 >= -1 ;
-1 x71 -1 x330 >= -1 ;
-1 x72 -1 x329 >= -1 ;
-1 x73 -1 x328 >= -1 ;
-1 x74 -1 x327 >= -1 ;
-1 x75 -1 x326 >= -1 ;
-1 x76 -1 x325 >= -1 ;
-1 x77 -1 x324 >= -1 ;
-1 x78 -1 x323 >= -1 ;
-1 x79 -1 x322 >= -1 ;
-1 x80 -1 x321 >= -1 ;
-1 x81 -1 x320 >= -1 ;
-1 x82 -1 x319 >= -1 ;
-1 x83 -1 x318 >= -1 ;
-1 x84 -1 x317 >= -1 ;
-1 x85 -1 x316 >= -1 ;
-1 x86 -1 x315 >= -1 ;
-1 x87 -1 x314 >= -1 ;
-1 x88 -1 x313 >= -1 ;
-1 x89 -1 x312 >= -1 ;
-1 x90 -1 x311 >= -1 ;
-1 x91 -1 x310 >= -1 ;
-1 x92 -1 x309 >= -1 ;
-1 x93 -1 x308 >= -1 ;
-1 x94 -1 x307 >= -1 ;
-1 x95 -1 x306 >= -1 ;
-1 x96 -1 x305 >= -1 ;
-1 x97 -1 x304 >= -1 ;
-1 x98 -1 x303 >= -1 ;
-1 x99 -1 x302 >= -1 ;
-1 x100 -1 x301 >= -1 ;
-1 x101 -1 x300 >= -1 ;
-1 x102 -1 x299 >= -1 ;
-1 x103 -1 x298 >= -1 ;
-1 x104 -1 x297 >= -1 ;
-1 x105 -1 x296 >= -1 ;
-1 x106 -1 x295 >= -1 ;
-1 x107 -1 x294 >= -1 ;
-1 x108 -1 x293 >= -1 ;
-1 x109 -1 x292 >= -1 ;
-1 x110 -1 x291 >= -1 ;
-1 x111 -1 x290 >= -1 ;
-1 x112 -1 x289 >= -1 ;
-1 x113 -1 x288 >= -1 ;
-1 x114 -1 x287 >= -1 ;
-1 x115 -1 x286 >= -1 ;
-1 x116 -1 x285 >= -1 ;
-1 x117 -1 x284 >= -1 ;
-1 x118 -1 x283 >= -1 ;
-1 x119 -1 x282 >= -1 ;
-1 x120 -1 x281 >= -1 ;
-1 x121 -1 x280 >= -1 ;
-1 x122 -1 x279 >= -1 ;
-1 x123 -1 x278 >= -1 ;
-1 x124 -1 x277 >= -1 ;
-1 x125 -1 x276 >= -1 ;
-1 x126 -1 x275 >= -1 ;
-1 x127 -1 x274 >= -1 ;
-1 x128 -1 x273 >= -1 ;
-1 x129 -1 x272 >= -1 ;
-1 x130 -1 x271 >= -1 ;
-1 x131 -1 x270 >= -1 ;
-1 x132 -1 x269 >= -1 ;
-1 x133 -1 x268 >= -1 ;
-1 x134 -1 x267 >= -1 ;
-1 x135 -1 x266 >= -1 ;
-1 x136 -1 x265 >= -1 ;
-1 x137 -1 x264 >= -1 ;
-1 x138 -1 x263 >= -1 ;
-1 x139 -1 x262 >= -1 ;
-1 x140 -1 x261 >= -1 ;
-1 x141 -1 x260 >= -1 ;
-1 x142 -1 x259 >= -1 ;
-1 x143 -1 x258 >= -1 ;
-1 x144 -1 x257 >= -1 ;
-1 x145 -1 x256 >= -1 ;
-1 x146 -1 x255 >= -1 ;
-1 x147 -1 x254 >= -1 ;
-1 x148 -1 x253 >= -1 ;
-1 x149 -1 x252 >= -1 ;
-1 x150 -1 x251 >= -1 ;
-1 x151 -1 x250 >= -1 ;
-1 x152 -1 x249 >= -1 ;
-1 x153 -1 x248 >= -1 ;
-1 x154 -1 x247 >= -1 ;
-1 x155 -1 x246 >= -1 ;
-1 x156 -1 x245 >= -1 ;
-1 x157 -1 x244 >= -1 ;
-1 x158 -1 x243 >= -1 ;
-1 x159 -1 x242 >= -1 ;
-1 x160 -1 x241 >= -1 ;
-1 x161 -1 x240 >= -1 ;
-1 x162 -1 x239 >= -1 ;
-1 x163 -1 x238 >= -1 ;
-1 x164 -1 x237 >= -1 ;
-1 x165 -1 x236 >= -1 ;
-1 x166 -1 x235 >= -1 ;
-1 x167 -1 x234 >= -1 ;
-1 x168 -1 x233 >= -1 ;
-1 x169 -1 x232 >= -1 ;
-1 x170 -1 x231 >= -1 ;
-1 x171 -1 x230 >= -1 ;
-1 x172 -1 x229 >= -1 ;
-1 x173 -1 x228 >= -1 ;
-1 x174 -1 x227 >= -1 ;
-1 x175 -1 x226 >= -1 ;
-1 x176 -1 x225 >= -1 ;
-1 x177 -1 x224 >= -1 ;
-1 x178 -1 x223 >= -1 ;
-1 x179 -1 x222 >= -1 ;
-1 x180 -1 x221 >= -1 ;
-1 x181 -1 x220 >= -1 ;
-1 x182 -1 x219 >= -1 ;
-1 x183 -1 x218 >= -1 ;
-1 x184 -1 x217 >= -1 ;
-1 x185 -1 x216 >= -1 ;
-1 x186 -1 x215 >= -1 ;
-1 x187 -1 x214 >= -1 ;
-1 x188 -1 x213 >= -1 ;
-1 x189 -1 x212 >= -1 ;
-1 x190 -1 x211 >= -1 ;
-1 x191 -1 x210 >= -1 ;
-1 x192 -1 x209 >= -1 ;
-1 x193 -1 x208 >= -1 ;
-1 x194 -1 x207 >= -1 ;
-1 x195 -1 x206 >= -1 ;
-1 x196 -1 x205 >= -1 ;
-1 x197 -1 x204 >= -1 ;
-1 x198 -1 x203 >= -1 ;
-1 x199 -1 x202 >= -1 ;
-1 x200 -1 x201 >= -1 ;
+1 x15 +1 x16 +1 x31 +1 x32 +1 x47 +1 x48 +1 x62 +1 x63 +1 x78 +1 x79 +1 x94 +1 x95 +1 x110 +1 x111 +1 x125 +1 x126 +1 x141 +1 x142 +1 x157 +1 x158 +1 x172 +1 x173 +1 x188 +1 x189 +1 x204 +1 x205 +1 x220 +1 x221 +1 x235 +1 x236 +1 x251 +1 x252 +1 x267 +1 x268 +1 x283 +1 x284 +1 x298 +1 x299 +1 x314 +1 x315 +1 x330 +1 x331 +1 x345 +1 x346 +1 x361 +1 x362 +1 x377 +1 x378 +1 x393 +1 x394 >= 1 ;
+1 x15 +1 x16 +1 x30 +1 x31 +1 x46 +1 x47 +1 x61 +1 x62 +1 x77 +1 x78 +1 x92 +1 x93 +1 x107 +1 x108 +1 x123 +1 x124 +1 x138 +1 x139 +1 x154 +1 x155 +1 x169 +1 x170 +1 x185 +1 x186 +1 x200 +1 x201 +1 x215 +1 x216 +1 x231 +1 x232 +1 x246 +1 x247 +1 x262 +1 x263 +1 x277 +1 x278 +1 x293 +1 x294 +1 x308 +1 x309 +1 x323 +1 x324 +1 x339 +1 x340 +1 x354 +1 x355 +1 x370 +1 x371 +1 x385 +1 x386 >= 1 ;
+1 x15 +1 x16 +1 x30 +1 x31 +1 x45 +1 x46 +1 x60 +1 x61 +1 x75 +1 x76 +1 x90 +1 x91 +1 x105 +1 x106 +1 x121 +1 x122 +1 x136 +1 x137 +1 x151 +1 x152 +1 x166 +1 x167 +1 x181 +1 x182 +1 x196 +1 x197 +1 x211 +1 x212 +1 x227 +1 x242 +1 x243 +1 x257 +1 x258 +1 x272 +1 x273 +1 x287 +1 x288 +1 x302 +1 x303 +1 x317 +1 x318 +1 x332 +1 x333 +1 x348 +1 x363 +1 x364 +1 x378 +1 x379 +1 x393 +1 x394 >= 1 ;
+1 x14 +1 x15 +1 x29 +1 x30 +1 x44 +1 x45 +1 x59 +1 x60 +1 x74 +1 x75 +1 x89 +1 x90 +1 x104 +1 x118 +1 x119 +1 x133 +1 x134 +1 x148 +1 x149 +1 x163 +1 x164 +1 x178 +1 x179 +1 x193 +1 x194 +1 x207 +1 x208 +1 x222 +1 x223 +1 x237 +1 x238 +1 x252 +1 x253 +1 x267 +1 x268 +1 x282 +1 x283 +1 x297 +1 x311 +1 x312 +1 x326 +1 x327 +1 x341 +1 x342 +1 x356 +1 x357 +1 x371 +1 x372 +1 x386 +1 x387 >= 1 ;
+1 x14 +1 x15 +1 x29 +1 x30 +1 x43 +1 x44 +1 x58 +1 x59 +1 x72 +1 x73 +1 x87 +1 x88 +1 x102 +1 x116 +1 x117 +1 x131 +1 x132 +1 x145 +1 x146 +1 x160 +1 x161 +1 x175 +1 x189 +1 x190 +1 x204 +1 x205 +1 x218 +1 x219 +1 x233 +1 x234 +1 x247 +1 x248 +1 x262 +1 x263 +1 x277 +1 x291 +1 x292 +1 x306 +1 x307 +1 x320 +1 x321 +1 x335 +1 x336 +1 x350 +1 x364 +1 x365 +1 x379 +1 x380 +1 x393 +1 x394 >= 1 ;
+1 x14 +1 x15 +1 x28 +1 x29 +1 x43 +1 x57 +1 x58 +1 x71 +1 x72 +1 x86 +1 x100 +1 x101 +1 x114 +1 x115 +1 x128 +1 x129 +1 x143 +1 x144 +1 x157 +1 x158 +1 x171 +1 x172 +1 x186 +1 x187 +1 x200 +1 x201 +1 x214 +1 x215 +1 x229 +1 x230 +1 x243 +1 x244 +1 x257 +1 x258 +1 x272 +1 x273 +1 x286 +1 x287 +1 x300 +1 x301 +1 x315 +1 x329 +1 x330 +1 x343 +1 x344 +1 x358 +1 x372 +1 x373 +1 x386 +1 x387 >= 1 ;
+1 x14 +1 x28 +1 x29 +1 x42 +1 x43 +1 x56 +1 x57 +1 x70 +1 x71 +1 x84 +1 x85 +1 x98 +1 x99 +1 x112 +1 x113 +1 x126 +1 x127 +1 x140 +1 x141 +1 x154 +1 x155 +1 x168 +1 x169 +1 x183 +1 x197 +1 x211 +1 x225 +1 x226 +1 x239 +1 x240 +1 x253 +1 x254 +1 x267 +1 x268 +1 x281 +1 x282 +1 x295 +1 x296 +1 x309 +1 x310 +1 x323 +1 x324 +1 x337 +1 x338 +1 x351 +1 x352 +1 x365 +1 x366 +1 x380 +1 x394 >= 1 ;
+1 x13 +1 x14 +1 x27 +1 x28 +1 x41 +1 x42 +1 x55 +1 x56 +1 x69 +1 x70 +1 x83 +1 x96 +1 x97 +1 x110 +1 x111 +1 x124 +1 x125 +1 x138 +1 x139 +1 x152 +1 x166 +1 x179 +1 x180 +1 x193 +1 x194 +1 x207 +1 x208 +1 x221 +1 x222 +1 x235 +1 x249 +1 x262 +1 x263 +1 x276 +1 x277 +1 x290 +1 x291 +1 x304 +1 x305 +1 x318 +1 x331 +1 x332 +1 x345 +1 x346 +1 x359 +1 x360 +1 x373 +1 x374 +1 x387 +1 x388 >= 1 ;
+1 x13 +1 x14 +1 x27 +1 x28 +1 x40 +1 x41 +1 x54 +1 x55 +1 x68 +1 x81 +1 x82 +1 x95 +1 x96 +1 x108 +1 x109 +1 x122 +1 x123 +1 x136 +1 x149 +1 x150 +1 x163 +1 x176 +1 x177 +1 x190 +1 x191 +1 x204 +1 x217 +1 x218 +1 x231 +1 x244 +1 x245 +1 x258 +1 x259 +1 x272 +1 x285 +1 x286 +1 x299 +1 x312 +1 x313 +1 x326 +1 x327 +1 x339 +1 x340 +1 x353 +1 x354 +1 x367 +1 x380 +1 x381 +1 x394 +1 x395 >= 1 ;
+1 x13 +1 x14 +1 x26 +1 x27 +1 x40 +1 x53 +1 x54 +1 x66 +1 x67 +1 x80 +1 x81 +1 x93 +1 x94 +1 x107 +1 x120 +1 x121 +1 x133 +1 x134 +1 x147 +1 x160 +1 x161 +1 x173 +1 x174 +1 x187 +1 x200 +1 x201 +1 x214 +1 x227 +1 x228 +1 x240 +1 x241 +1 x254 +1 x267 +1 x268 +1 x280 +1 x281 +1 x294 +1 x307 +1 x308 +1 x320 +1 x321 +1 x334 +1 x335 +1 x347 +1 x348 +1 x361 +1 x374 +1 x375 +1 x387 +1 x388 >= 1 ;
+1 x13 +1 x26 +1 x27 +1 x39 +1 x40 +1 x52 +1 x53 +1 x65 +1 x66 +1 x79 +1 x92 +1 x105 +1 x106 +1 x118 +1 x119 +1 x131 +1 x132 +1 x144 +1 x145 +1 x157 +1 x158 +1 x171 +1 x184 +1 x197 +1 x198 +1 x210 +1 x211 +1 x223 +1 x224 +1 x236 +1 x237 +1 x249 +1 x250 +1 x263 +1 x276 +1 x289 +1 x290 +1 x302 +1 x303 +1 x315 +1 x316 +1 x328 +1 x329 +1 x342 +1 x355 +1 x368 +1 x381 +1 x382 +1 x394 +1 x395 >= 1 ;
+1 x13 +1 x26 +1 x38 +1 x39 +1 x51 +1 x52 +1 x64 +1 x65 +1 x77 +1 x78 +1 x90 +1 x91 +1 x103 +1 x104 +1 x116 +1 x117 +1 x129 +1 x130 +1 x142 +1 x143 +1 x155 +1 x156 +1 x168 +1 x181 +1 x194 +1 x207 +1 x220 +1 x233 +1 x245 +1 x246 +1 x258 +1 x259 +1 x271 +1 x272 +1 x284 +1 x285 +1 x297 +1 x298 +1 x310 +1 x311 +1 x323 +1 x324 +1 x336 +1 x337 +1 x349 +1 x350 +1 x362 +1 x363 +1 x375 +1 x388 >= 1 ;
+1 x12 +1 x13 +1 x25 +1 x26 +1 x38 +1 x51 +1 x63 +1 x64 +1 x76 +1 x77 +1 x89 +1 x102 +1 x114 +1 x115 +1 x127 +1 x128 +1 x140 +1 x152 +1 x153 +1 x165 +1 x166 +1 x178 +1 x179 +1 x191 +1 x203 +1 x204 +1 x216 +1 x217 +1 x229 +1 x242 +1 x254 +1 x255 +1 x267 +1 x268 +1 x280 +1 x292 +1 x293 +1 x305 +1 x306 +1 x318 +1 x319 +1 x331 +1 x343 +1 x344 +1 x356 +1 x357 +1 x369 +1 x382 +1 x394 +1 x395 >= 1 ;
+1 x12 +1 x13 +1 x25 +1 x37 +1 x38 +1 x50 +1 x62 +1 x63 +1 x75 +1 x87 +1 x88 +1 x100 +1 x101 +1 x112 +1 x113 +1 x125 +1 x126 +1 x138 +1 x150 +1 x151 +1 x163 +1 x175 +1 x176 +1 x188 +1 x200 +1 x201 +1 x213 +1 x225 +1 x226 +1 x238 +1 x250 +1 x251 +1 x263 +1 x275 +1 x276 +1 x288 +1 x289 +1 x300 +1 x301 +1 x313 +1 x314 +1 x326 +1 x338 +1 x339 +1 x351 +1 x363 +1 x364 +1 x376 +1 x388 +1 x389 >= 1 ;
+1 x12 +1 x13 +1 x24 +1 x25 +1 x37 +1 x49 +1 x50 +1 x61 +1 x62 +1 x74 +1 x86 +1 x87 +1 x98 +1 x99 +1 x111 +1 x123 +1 x124 +1 x135 +1 x136 +1 x148 +1 x160 +1 x161 +1 x172 +1 x173 +1 x185 +1 x197 +1 x198 +1 x209 +1 x210 +1 x222 +1 x234 +1 x235 +1 x246 +1 x247 +1 x259 +1 x271 +1 x272 +1 x284 +1 x296 +1 x308 +1 x309 +1 x321 +1 x333 +1 x345 +1 x346 +1 x358 +1 x370 +1 x382 +1 x383 +1 x395 >= 1 ;
+1 x12 +1 x24 +1 x25 +1 x36 +1 x37 +1 x48 +1 x49 +1 x60 +1 x61 +1 x73 +1 x85 +1 x97 +1 x109 +1 x110 +1 x121 +1 x122 +1 x133 +1 x134 +1 x146 +1 x158 +1 x170 +1 x182 +1 x183 +1 x194 +1 x195 +1 x206 +1 x207 +1 x218 +1 x219 +1 x231 +1 x243 +1 x255 +1 x267 +1 x268 +1 x279 +1 x280 +1 x291 +1 x292 +1 x304 +1 x316 +1 x328 +1 x340 +1 x341 +1 x352 +1 x353 +1 x364 +1 x365 +1 x376 +1 x377 +1 x389 >= 1 ;
+1 x12 +1 x24 +1 x36 +1 x48 +1 x60 +1 x72 +1 x84 +1 x96 +1 x107 +1 x108 +1 x119 +1 x120 +1 x131 +1 x132 +1 x143 +1 x144 +1 x155 +1 x156 +1 x167 +1 x168 +1 x179 +1 x180 +1 x191 +1 x192 +1 x203 +1 x204 +1 x215 +1 x216 +1 x227 +1 x228 +1 x239 +1 x240 +1 x251 +1 x252 +1 x263 +1 x264 +1 x275 +1 x276 +1 x287 +1 x288 +1 x299 +1 x300 +1 x311 +1 x323 +1 x335 +1 x347 +1 x359 +1 x371 +1 x383 +1 x395 >= 1 ;
+1 x12 +1 x23 +1 x24 +1 x35 +1 x36 +1 x47 +1 x59 +1 x71 +1 x82 +1 x83 +1 x94 +1 x95 +1 x106 +1 x118 +1 x129 +1 x130 +1 x141 +1 x142 +1 x153 +1 x154 +1 x165 +1 x177 +1 x188 +1 x189 +1 x200 +1 x201 +1 x212 +1 x213 +1 x224 +1 x236 +1 x247 +1 x248 +1 x259 +1 x260 +1 x271 +1 x272 +1 x283 +1 x295 +1 x306 +1 x307 +1 x318 +1 x319 +1 x330 +1 x342 +1 x354 +1 x365 +1 x366 +1 x377 +1 x378 +1 x389 >= 1 ;
+1 x11 +1 x12 +1 x23 +1 x35 +1 x46 +1 x47 +1 x58 +1 x70 +1 x81 +1 x82 +1 x93 +1 x104 +1 x105 +1 x116 +1 x128 +1 x139 +1 x140 +1 x151 +1 x162 +1 x163 +1 x174 +1 x175 +1 x186 +1 x197 +1 x198 +1 x209 +1 x221 +1 x232 +1 x233 +1 x244 +1 x255 +1 x256 +1 x267 +1 x268 +1 x279 +1 x290 +1 x291 +1 x302 +1 x314 +1 x325 +1 x326 +1 x337 +1 x348 +1 x349 +1 x360 +1 x361 +1 x372 +1 x383 +1 x384 +1 x395 >= 1 ;
+1 x11 +1 x12 +1 x23 +1 x34 +1 x35 +1 x46 +1 x57 +1 x58 +1 x69 +1 x80 +1 x91 +1 x92 +1 x103 +1 x114 +1 x115 +1 x126 +1 x137 +1 x138 +1 x149 +1 x160 +1 x161 +1 x172 +1 x183 +1 x184 +1 x195 +1 x206 +1 x217 +1 x218 +1 x229 +1 x240 +1 x241 +1 x252 +1 x263 +1 x264 +1 x275 +1 x286 +1 x287 +1 x298 +1 x309 +1 x310 +1 x321 +1 x332 +1 x343 +1 x344 +1 x355 +1 x366 +1 x367 +1 x378 +1 x389 +1 x390 >= 1 ;
+1 x11 +1 x12 +1 x22 +1 x23 +1 x34 +1 x45 +1 x56 +1 x57 +1 x68 +1 x79 +1 x90 +1 x91 +1 x101 +1 x102 +1 x113 +1 x124 +1 x135 +1 x136 +1 x147 +1 x158 +1 x169 +1 x170 +1 x181 +1 x192 +1 x203 +1 x204 +1 x214 +1 x215 +1 x226 +1 x237 +1 x248 +1 x249 +1 x260 +1 x271 +1 x282 +1 x283 +1 x293 +1 x294 +1 x305 +1 x316 +1 x327 +1 x328 +1 x339 +1 x350 +1 x361 +1 x362 +1 x373 +1 x384 +1 x395 +1 x396 >= 1 ;
+1 x11 +1 x22 +1 x33 +1 x34 +1 x44 +1 x45 +1 x55 +1 x56 +1 x67 +1 x78 +1 x89 +1 x100 +1 x111 +1 x112 +1 x122 +1 x123 +1 x133 +1 x134 +1 x145 +1 x156 +1 x167 +1 x178 +1 x189 +1 x190 +1 x200 +1 x201 +1 x211 +1 x212 +1 x223 +1 x234 +1 x245 +1 x256 +1 x267 +1 x268 +1 x278 +1 x279 +1 x289 +1 x290 +1 x301 +1 x312 +1 x323 +1 x334 +1 x345 +1 x346 +1 x356 +1 x357 +1 x367 +1 x368 +1 x379 +1 x390 >= 1 ;
+1 x11 +1 x22 +1 x33 +1 x44 +1 x55 +1 x66 +1 x77 +1 x88 +1 x99 +1 x110 +1 x121 +1 x132 +1 x143 +1 x154 +1 x165 +1 x176 +1 x187 +1 x198 +1 x209 +1 x220 +1 x231 +1 x242 +1 x252 +1 x253 +1 x263 +1 x264 +1 x274 +1 x275 +1 x285 +1 x286 +1 x296 +1 x297 +1 x307 +1 x308 +1 x318 +1 x319 +1 x329 +1 x330 +1 x340 +1 x341 +1 x351 +1 x352 +1 x362 +1 x363 +1 x373 +1 x374 +1 x384 +1 x385 +1 x395 +1 x396 >= 1 ;
+1 x11 +1 x21 +1 x22 +1 x32 +1 x33 +1 x43 +1 x44 +1 x54 +1 x65 +1 x76 +1 x87 +1 x97 +1 x98 +1 x108 +1 x109 +1 x119 +1 x130 +1 x141 +1 x152 +1 x162 +1 x163 +1 x173 +1 x174 +1 x184 +1 x195 +1 x206 +1 x217 +1 x227 +1 x228 +1 x238 +1 x239 +1 x249 +1 x260 +1 x271 +1 x282 +1 x292 +1 x293 +1 x303 +1 x304 +1 x314 +1 x325 +1 x336 +1 x347 +1 x357 +1 x358 +1 x368 +1 x369 +1 x379 +1 x380 +1 x390 >= 1 ;
+1 x11 +1 x21 +1 x22 +1 x32 +1 x43 +1 x53 +1 x54 +1 x64 +1 x75 +1 x85 +1 x86 +1 x96 +1 x107 +1 x117 +1 x118 +1 x128 +1 x139 +1 x150 +1 x160 +1 x161 +1 x171 +1 x182 +1 x192 +1 x193 +1 x203 +1 x214 +1 x224 +1 x225 +1 x235 +1 x246 +1 x256 +1 x257 +1 x267 +1 x268 +1 x278 +1 x289 +1 x299 +1 x300 +1 x310 +1 x321 +1 x331 +1 x332 +1 x342 +1 x353 +1 x363 +1 x364 +1 x374 +1 x385 +1 x395 +1 x396 >= 1 ;
+1 x10 +1 x11 +1 x21 +1 x31 +1 x32 +1 x42 +1 x53 +1 x63 +1 x74 +1 x84 +1 x85 +1 x95 +1 x105 +1 x106 +1 x116 +1 x126 +1 x127 +1 x137 +1 x148 +1 x158 +1 x169 +1 x179 +1 x180 +1 x190 +1 x200 +1 x201 +1 x211 +1 x221 +1 x222 +1 x232 +1 x243 +1 x253 +1 x264 +1 x274 +1 x275 +1 x285 +1 x295 +1 x296 +1 x306 +1 x316 +1 x317 +1 x327 +1 x338 +1 x348 +1 x359 +1 x369 +1 x370 +1 x380 +1 x390 +1 x391 >= 1 ;
+1 x10 +1 x11 +1 x21 +1 x31 +1 x42 +1 x52 +1 x62 +1 x63 +1 x73 +1 x83 +1 x94 +1 x104 +1 x114 +1 x115 +1 x125 +1 x135 +1 x136 +1 x146 +1 x156 +1 x166 +1 x167 +1 x177 +1 x187 +1 x188 +1 x198 +1 x208 +1 x219 +1 x229 +1 x239 +1 x240 +1 x250 +1 x260 +1 x261 +1 x271 +1 x281 +1 x291 +1 x292 +1 x302 +1 x312 +1 x313 +1 x323 +1 x333 +1 x344 +1 x354 +1 x364 +1 x365 +1 x375 +1 x385 +1 x386 +1 x396 >= 1 ;
+1 x10 +1 x20 +1 x21 +1 x31 +1 x41 +1 x51 +1 x52 +1 x62 +1 x72 +1 x82 +1 x92 +1 x93 +1 x103 +1 x113 +1 x123 +1 x124 +1 x134 +1 x144 +1 x154 +1 x164 +1 x165 +1 x175 +1 x185 +1 x195 +1 x196 +1 x205 +1 x206 +1 x216 +1 x226 +1 x236 +1 x237 +1 x247 +1 x257 +1 x267 +1 x277 +1 x278 +1 x288 +1 x298 +1 x308 +1 x309 +1 x319 +1 x329 +1 x339 +1 x349 +1 x350 +1 x360 +1 x370 +1 x380 +1 x381 +1 x391 >= 1 ;
+1 x10 +1 x20 +1 x30 +1 x31 +1 x40 +1 x41 +1 x51 +1 x61 +1 x71 +1 x81 +1 x91 +1 x92 +1 x101 +1 x102 +1 x112 +1 x122 +1 x132 +1 x142 +1 x152 +1 x162 +1 x163 +1 x172 +1 x173 +1 x183 +1 x193 +1 x203 +1 x213 +1 x223 +1 x233 +1 x234 +1 x244 +1 x254 +1 x264 +1 x274 +1 x284 +1 x294 +1 x295 +1 x304 +1 x305 +1 x315 +1 x325 +1 x335 +1 x345 +1 x355 +1 x365 +1 x366 +1 x375 +1 x376 +1 x386 +1 x396 >= 1 ;
+1 x10 +1 x20 +1 x30 +1 x40 +1 x50 +1 x60 +1 x70 +1 x80 +1 x90 +1 x100 +1 x110 +1 x120 +1 x130 +1 x140 +1 x150 +1 x151 +1 x160 +1 x161 +1 x170 +1 x171 +1 x180 +1 x181 +1 x190 +1 x191 +1 x200 +1 x201 +1 x210 +1 x211 +1 x220 +1 x221 +1 x230 +1 x231 +1 x240 +1 x241 +1 x250 +1 x251 +1 x261 +1 x271 +1 x281 +1 x291 +1 x301 +1 x311 +1 x321 +1 x331 +1 x341 +1 x351 +1 x361 +1 x371 +1 x381 +1 x391 >= 1 ;
+1 x10 +1 x20 +1 x30 +1 x39 +1 x40 +1 x49 +1 x50 +1 x59 +1 x60 +1 x69 +1 x79 +1 x89 +1 x99 +1 x109 +1 x119 +1 x129 +1 x138 +1 x139 +1 x148 +1 x149 +1 x158 +1 x159 +1 x168 +1 x178 +1 x188 +1 x198 +1 x208 +1 x218 +1 x228 +1 x238 +1 x247 +1 x248 +1 x257 +1 x258 +1 x267 +1 x277 +1 x287 +1 x297 +1 x307 +1 x317 +1 x327 +1 x337 +1 x346 +1 x347 +1 x356 +1 x357 +1 x366 +1 x376 +1 x386 +1 x396 >= 1 ;
+1 x10 +1 x19 +1 x20 +1 x29 +1 x39 +1 x49 +1 x59 +1 x68 +1 x69 +1 x78 +1 x88 +1 x98 +1 x107 +1 x108 +1 x117 +1 x127 +1 x137 +1 x147 +1 x156 +1 x157 +1 x166 +1 x176 +1 x186 +1 x195 +1 x196 +1 x205 +1 x206 +1 x215 +1 x225 +1 x235 +1 x244 +1 x245 +1 x254 +1 x264 +1 x274 +1 x284 +1 x293 +1 x294 +1 x303 +1 x313 +1 x323 +1 x332 +1 x333 +1 x342 +1 x352 +1 x362 +1 x372 +1 x381 +1 x382 +1 x391 >= 1 ;
+1 x10 +1 x19 +1 x29 +1 x39 +1 x48 +1 x58 +1 x68 +1 x77 +1 x87 +1 x97 +1 x106 +1 x116 +1 x126 +1 x135 +1 x145 +1 x154 +1 x155 +1 x164 +1 x174 +1 x183 +1 x184 +1 x193 +1 x203 +1 x212 +1 x213 +1 x222 +1 x232 +1 x241 +1 x242 +1 x251 +1 x261 +1 x270 +1 x271 +1 x280 +1 x290 +1 x299 +1 x300 +1 x309 +1 x319 +1 x328 +1 x329 +1 x338 +1 x348 +1 x357 +1 x358 +1 x367 +1 x377 +1 x386 +1 x387 +1 x396 >= 1 ;
+1 x9 +1 x10 +1 x19 +1 x29 +1 x38 +1 x48 +1 x57 +1 x67 +1 x76 +1 x86 +1 x95 +1 x96 +1 x105 +1 x114 +1 x115 +1 x124 +1 x134 +1 x143 +1 x153 +1 x162 +1 x172 +1 x181 +1 x182 +1 x191 +1 x200 +1 x201 +1 x210 +1 x219 +1 x220 +1 x229 +1 x239 +1 x248 +1 x258 +1 x267 +1 x277 +1 x286 +1 x287 +1 x296 +1 x305 +1 x306 +1 x315 +1 x325 +1 x334 +1 x344 +1 x353 +1 x363 +1 x372 +1 x382 +1 x391 +1 x392 >= 1 ;
+1 x9 +1 x10 +1 x19 +1 x28 +1 x38 +1 x47 +1 x57 +1 x66 +1 x75 +1 x76 +1 x85 +1 x94 +1 x104 +1 x113 +1 x123 +1 x132 +1 x141 +1 x142 +1 x151 +1 x160 +1 x170 +1 x179 +1 x189 +1 x198 +1 x207 +1 x208 +1 x217 +1 x226 +1 x227 +1 x236 +1 x245 +1 x255 +1 x264 +1 x274 +1 x283 +1 x292 +1 x293 +1 x302 +1 x311 +1 x321 +1 x330 +1 x340 +1 x349 +1 x358 +1 x359 +1 x368 +1 x377 +1 x378 +1 x387 +1 x396 >= 1 ;
+1 x9 +1 x19 +1 x28 +1 x37 +1 x47 +1 x56 +1 x65 +1 x75 +1 x84 +1 x93 +1 x102 +1 x103 +1 x112 +1 x121 +1 x130 +1 x131 +1 x140 +1 x149 +1 x158 +1 x159 +1 x168 +1 x177 +1 x186 +1 x187 +1 x196 +1 x205 +1 x214 +1 x215 +1 x224 +1 x233 +1 x242 +1 x243 +1 x252 +1 x261 +1 x270 +1 x271 +1 x280 +1 x289 +1 x298 +1 x299 +1 x308 +1 x317 +1 x326 +1 x336 +1 x345 +1 x354 +1 x364 +1 x373 +1 x382 +1 x392 >= 1 ;
+1 x9 +1 x18 +1 x19 +1 x28 +1 x37 +1 x46 +1 x55 +1 x64 +1 x65 +1 x74 +1 x83 +1 x92 +1 x101 +1 x111 +1 x120 +1 x129 +1 x138 +1 x147 +1 x148 +1 x157 +1 x166 +1 x175 +1 x184 +1 x194 +1 x203 +1 x212 +1 x221 +1 x230 +1 x231 +1 x240 +1 x249 +1 x258 +1 x267 +1 x276 +1 x277 +1 x286 +1 x295 +1 x304 +1 x313 +1 x314 +1 x323 +1 x332 +1 x341 +1 x350 +1 x359 +1 x360 +1 x369 +1 x378 +1 x387 +1 x396 >= 1 ;
+1 x9 +1 x18 +1 x27 +1 x36 +1 x37 +1 x45 +1 x46 +1 x55 +1 x64 +1 x73 +1 x82 +1 x91 +1 x100 +1 x109 +1 x118 +1 x119 +1 x128 +1 x137 +1 x146 +1 x155 +1 x164 +1 x173 +1 x182 +1 x191 +1 x200 +1 x201 +1 x210 +1 x219 +1 x228 +1 x237 +1 x246 +1 x255 +1 x264 +1 x273 +1 x282 +1 x283 +1 x292 +1 x301 +1 x310 +1 x319 +1 x328 +1 x337 +1 x346 +1 x355 +1 x356 +1 x364 +1 x365 +1 x374 +1 x383 +1 x392 >= 1 ;
+1 x9 +1 x18 +1 x27 +1 x36 +1 x45 +1 x54 +1 x63 +1 x72 +1 x81 +1 x90 +1 x99 +1 x108 +1 x117 +1 x126 +1 x135 +1 x144 +1 x153 +1 x162 +1 x171 +1 x180 +1 x189 +1 x198 +1 x207 +1 x216 +1 x225 +1 x234 +1 x243 +1 x252 +1 x261 +1 x270 +1 x279 +1 x288 +1 x297 +1 x306 +1 x315 +1 x324 +1 x333 +1 x342 +1 x351 +1 x352 +1 x360 +1 x361 +1 x369 +1 x370 +1 x378 +1 x379 +1 x387 +1 x388 +1 x396 +1 x397 >= 1 ;
+1 x9 +1 x18 +1 x27 +1 x36 +1 x44 +1 x45 +1 x53 +1 x54 +1 x62 +1 x71 +1 x80 +1 x89 +1 x98 +1 x107 +1 x116 +1 x125 +1 x134 +1 x143 +1 x151 +1 x152 +1 x160 +1 x169 +1 x178 +1 x187 +1 x196 +1 x205 +1 x214 +1 x223 +1 x232 +1 x241 +1 x249 +1 x250 +1 x258 +1 x267 +1 x276 +1 x285 +1 x294 +1 x303 +1 x312 +1 x321 +1 x330 +1 x339 +1 x347 +1 x348 +1 x356 +1 x357 +1 x365 +1 x374 +1 x383 +1 x392 >= 1 ;
+1 x9 +1 x18 +1 x26 +1 x35 +1 x44 +1 x53 +1 x62 +1 x70 +1 x71 +1 x79 +1 x88 +1 x97 +1 x106 +1 x115 +1 x123 +1 x132 +1 x141 +1 x150 +1 x159 +1 x167 +1 x168 +1 x176 +1 x185 +1 x194 +1 x203 +1 x211 +1 x212 +1 x220 +1 x229 +1 x238 +1 x247 +1 x256 +1 x264 +1 x273 +1 x282 +1 x291 +1 x300 +1 x308 +1 x309 +1 x317 +1 x326 +1 x335 +1 x344 +1 x352 +1 x353 +1 x361 +1 x370 +1 x379 +1 x388 +1 x397 >= 1 ;
+1 x9 +1 x17 +1 x26 +1 x35 +1 x44 +1 x52 +1 x61 +1 x70 +1 x78 +1 x79 +1 x87 +1 x96 +1 x105 +1 x113 +1 x122 +1 x131 +1 x139 +1 x140 +1 x148 +1 x157 +1 x166 +1 x174 +1 x183 +1 x192 +1 x200 +1 x201 +1 x209 +1 x218 +1 x227 +1 x235 +1 x244 +1 x253 +1 x261 +1 x262 +1 x270 +1 x279 +1 x288 +1 x296 +1 x305 +1 x314 +1 x322 +1 x323 +1 x331 +1 x340 +1 x349 +1 x357 +1 x366 +1 x375 +1 x384 +1 x392 >= 1 ;
+1 x9 +1 x17 +1 x26 +1 x34 +1 x35 +1 x43 +1 x52 +1 x60 +1 x69 +1 x78 +1 x86 +1 x95 +1 x103 +1 x104 +1 x112 +1 x121 +1 x129 +1 x138 +1 x147 +1 x155 +1 x164 +1 x172 +1 x173 +1 x181 +1 x190 +1 x198 +1 x207 +1 x216 +1 x224 +1 x233 +1 x241 +1 x242 +1 x250 +1 x259 +1 x267 +1 x276 +1 x285 +1 x293 +1 x302 +1 x310 +1 x319 +1 x328 +1 x336 +1 x345 +1 x354 +1 x362 +1 x371 +1 x379 +1 x388 +1 x397 >= 1 ;
+1 x8 +1 x9 +1 x17 +1 x26 +1 x34 +1 x43 +1 x51 +1 x60 +1 x68 +1 x77 +1 x85 +1 x94 +1 x102 +1 x111 +1 x119 +1 x128 +1 x136 +1 x137 +1 x145 +1 x154 +1 x162 +1 x171 +1 x179 +1 x188 +1 x196 +1 x205 +1 x213 +1 x222 +1 x230 +1 x239 +1 x247 +1 x256 +1 x264 +1 x265 +1 x273 +1 x282 +1 x290 +1 x299 +1 x307 +1 x316 +1 x324 +1 x333 +1 x341 +1 x350 +1 x358 +1 x367 +1 x375 +1 x384 +1 x392 +1 x393 >= 1 ;
+1 x8 +1 x17 +1 x25 +1 x34 +1 x42 +1 x51 +1 x59 +1 x68 +1 x76 +1 x84 +1 x93 +1 x101 +1 x110 +1 x118 +1 x127 +1 x135 +1 x143 +1 x144 +1 x152 +1 x160 +1 x169 +1 x177 +1 x186 +1 x194 +1 x203 +1 x211 +1 x219 +1 x220 +1 x228 +1 x236 +1 x245 +1 x253 +1 x262 +1 x270 +1 x279 +1 x287 +1 x295 +1 x296 +1 x304 +1 x312 +1 x321 +1 x329 +1 x338 +1 x346 +1 x355 +1 x363 +1 x371 +1 x380 +1 x388 +1 x397 >= 1 ;
+1 x8 +1 x17 +1 x25 +1 x33 +1 x42 +1 x50 +1 x58 +1 x59 +1 x67 +1 x75 +1 x84 +1 x92 +1 x100 +1 x109 +1 x117 +1 x125 +1 x134 +1 x142 +1 x150 +1 x159 +1 x167 +1 x175 +1 x184 +1 x192 +1 x200 +1 x201 +1 x209 +1 x217 +1 x226 +1 x234 +1 x242 +1 x251 +1 x259 +1 x267 +1 x276 +1 x284 +1 x292 +1 x301 +1 x309 +1 x317 +1 x326 +1 x334 +1 x342 +1 x343 +1 x351 +1 x359 +1 x368 +1 x376 +1 x384 +1 x393 >= 1 ;
+1 x8 +1 x17 +1 x25 +1 x33 +1 x41 +1 x50 +1 x58 +1 x66 +1 x74 +1 x83 +1 x91 +1 x99 +1 x107 +1 x108 +1 x116 +1 x124 +1 x132 +1 x141 +1 x149 +1 x157 +1 x165 +1 x174 +1 x182 +1 x190 +1 x198 +1 x207 +1 x215 +1 x223 +1 x231 +1 x232 +1 x240 +1 x248 +1 x256 +1 x265 +1 x273 +1 x281 +1 x289 +1 x298 +1 x306 +1 x314 +1 x322 +1 x331 +1 x339 +1 x347 +1 x356 +1 x364 +1 x372 +1 x380 +1 x389 +1 x397 >= 1 ;
+1 x8 +1 x16 +1 x25 +1 x33 +1 x41 +1 x49 +1 x57 +1 x65 +1 x74 +1 x82 +1 x90 +1 x98 +1 x106 +1 x115 +1 x123 +1 x131 +1 x139 +1 x147 +1 x155 +1 x156 +1 x164 +1 x172 +1 x180 +1 x188 +1 x196 +1 x205 +1 x213 +1 x221 +1 x229 +1 x237 +1 x245 +1 x246 +1 x254 +1 x262 +1 x270 +1 x278 +1 x286 +1 x295 +1 x303 +1 x311 +1 x319 +1 x327 +1 x336 +1 x344 +1 x352 +1 x360 +1 x368 +1 x376 +1 x385 +1 x393 >= 1 ;
+1 x8 +1 x16 +1 x24 +1 x32 +1 x40 +1 x41 +1 x49 +1 x57 +1 x65 +1 x73 +1 x81 +1 x89 +1 x97 +1 x105 +1 x113 +1 x122 +1 x130 +1 x138 +1 x146 +1 x154 +1 x162 +1 x170 +1 x178 +1 x186 +1 x194 +1 x203 +1 x211 +1 x219 +1 x227 +1 x235 +1 x243 +1 x251 +1 x259 +1 x267 +1 x275 +1 x284 +1 x292 +1 x300 +1 x308 +1 x316 +1 x324 +1 x332 +1 x340 +1 x348 +1 x356 +1 x365 +1 x373 +1 x381 +1 x389 +1 x397 >= 1 ;
+1 x8 +1 x16 +1 x24 +1 x32 +1 x40 +1 x48 +1 x56 +1 x64 +1 x72 +1 x80 +1 x88 +1 x96 +1 x104 +1 x112 +1 x120 +1 x128 +1 x136 +1 x144 +1 x152 +1 x160 +1 x168 +1 x176 +1 x184 +1 x192 +1 x200 +1 x201 +1 x209 +1 x217 +1 x225 +1 x233 +1 x241 +1 x249 +1 x257 +1 x265 +1 x273 +1 x281 +1 x289 +1 x297 +1 x305 +1 x313 +1 x321 +1 x329 +1 x337 +1 x345 +1 x353 +1 x361 +1 x369 +1 x377 +1 x385 +1 x393 >= 1 ;
+1 x8 +1 x16 +1 x24 +1 x32 +1 x40 +1 x48 +1 x56 +1 x64 +1 x71 +1 x79 +1 x87 +1 x95 +1 x103 +1 x111 +1 x119 +1 x127 +1 x135 +1 x143 +1 x151 +1 x159 +1 x167 +1 x175 +1 x183 +1 x191 +1 x199 +1 x206 +1 x214 +1 x222 +1 x230 +1 x238 +1 x246 +1 x254 +1 x262 +1 x270 +1 x278 +1 x286 +1 x294 +1 x302 +1 x310 +1 x318 +1 x326 +1 x334 +1 x341 +1 x349 +1 x357 +1 x365 +1 x373 +1 x381 +1 x389 +1 x397 >= 1 ;
+1 x8 +1 x16 +1 x24 +1 x31 +1 x39 +1 x47 +1 x55 +1 x63 +1 x71 +1 x79 +1 x86 +1 x94 +1 x102 +1 x110 +1 x118 +1 x126 +1 x134 +1 x142 +1 x149 +1 x157 +1 x165 +1 x173 +1 x181 +1 x189 +1 x197 +1 x204 +1 x212 +1 x220 +1 x228 +1 x236 +1 x244 +1 x252 +1 x259 +1 x267 +1 x275 +1 x283 +1 x291 +1 x299 +1 x307 +1 x315 +1 x322 +1 x330 +1 x338 +1 x346 +1 x354 +1 x362 +1 x370 +1 x377 +1 x385 +1 x393 >= 1 ;
+1 x8 +1 x16 +1 x23 +1 x31 +1 x39 +1 x47 +1 x62 +1 x70 +1 x78 +1 x86 +1 x93 +1 x101 +1 x109 +1 x117 +1 x125 +1 x132 +1 x140 +1 x148 +1 x156 +1 x164 +1 x171 +1 x179 +1 x187 +1 x195 +1 x202 +1 x210 +1 x218 +1 x226 +1 x234 +1 x241 +1 x249 +1 x257 +1 x265 +1 x273 +1 x280 +1 x288 +1 x296 +1 x304 +1 x311 +1 x319 +1 x327 +1 x335 +1 x343 +1 x350 +1 x358 +1 x366 +1 x374 +1 x382 +1 x389 +1 x397 >= 1 ;
+1 x8 +1 x15 +1 x23 +1 x31 +1 x39 +1 x46 +1 x54 +1 x62 +1 x69 +1 x77 +1 x85 +1 x93 +1 x100 +1 x108 +1 x116 +1 x123 +1 x131 +1 x139 +1 x147 +1 x154 +1 x162 +1 x170 +1 x177 +1 x185 +1 x193 +1 x208 +1 x216 +1 x224 +1 x231 +1 x239 +1 x247 +1 x254 +1 x262 +1 x270 +1 x278 +1 x285 +1 x293 +1 x301 +1 x308 +1 x316 +1 x324 +1 x332 +1 x339 +1 x347 +1 x355 +1 x362 +1 x370 +1 x378 +1 x386 +1 x393 >= 1 ;
+1 x8 +1 x15 +1 x23 +1 x31 +1 x38 +1 x46 +1 x53 +1 x61 +1 x69 +1 x76 +1 x84 +1 x92 +1 x99 +1 x107 +1 x115 +1 x122 +1 x130 +1 x145 +1 x153 +1 x160 +1 x168 +1 x176 +1 x183 +1 x191 +1 x199 +1 x206 +1 x214 +1 x229 +1 x237 +1 x244 +1 x252 +1 x260 +1 x267 +1 x275 +1 x283 +1 x290 +1 x298 +1 x306 +1 x313 +1 x321 +1 x328 +1 x336 +1 x344 +1 x351 +1 x359 +1 x367 +1 x374 +1 x382 +1 x390 +1 x397 >= 1 ;
+1 x8 +1 x15 +1 x23 +1 x30 +1 x38 +1 x45 +1 x53 +1 x61 +1 x68 +1 x76 +1 x83 +1 x91 +1 x98 +1 x106 +1 x121 +1 x129 +1 x136 +1 x144 +1 x151 +1 x159 +1 x166 +1 x174 +1 x182 +1 x189 +1 x197 +1 x204 +1 x212 +1 x219 +1 x227 +1 x235 +1 x242 +1 x250 +1 x257 +1 x265 +1 x272 +1 x280 +1 x295 +1 x303 +1 x310 +1 x318 +1 x325 +1 x333 +1 x340 +1 x348 +1 x356 +1 x363 +1 x371 +1 x378 +1 x386 +1 x393 >= 1 ;
+1 x15 +1 x30 +1 x45 +1 x52 +1 x60 +1 x67 +1 x75 +1 x82 +1 x90 +1 x97 +1 x105 +1 x112 +1 x120 +1 x127 +1 x135 +1 x142 +1 x150 +1 x157 +1 x165 +1 x172 +1 x180 +1 x187 +1 x195 +1 x202 +1 x210 +1 x217 +1 x225 +1 x232 +1 x240 +1 x247 +1 x255 +1 x262 +1 x270 +1 x277 +1 x285 +1 x292 +1 x300 +1 x307 +1 x315 +1 x322 +1 x330 +1 x337 +1 x345 +1 x352 +1 x360 +1 x367 +1 x375 +1 x382 +1 x390 +1 x397 >= 1 ;
+1 x7 +1 x15 +1 x22 +1 x30 +1 x37 +1 x45 +1 x52 +1 x59 +1 x67 +1 x74 +1 x82 +1 x89 +1 x97 +1 x104 +1 x111 +1 x119 +1 x126 +1 x134 +1 x141 +1 x156 +1 x163 +1 x171 +1 x178 +1 x186 +1 x193 +1 x208 +1 x215 +1 x223 +1 x230 +1 x238 +1 x245 +1 x260 +1 x267 +1 x275 +1 x282 +1 x290 +1 x297 +1 x304 +1 x312 +1 x319 +1 x327 +1 x334 +1 x342 +1 x349 +1 x356 +1 x364 +1 x371 +1 x379 +1 x386 +1 x394 >= 1 ;
+1 x7 +1 x15 +1 x22 +1 x29 +1 x37 +1 x44 +1 x59 +1 x66 +1 x74 +1 x81 +1 x88 +1 x96 +1 x103 +1 x110 +1 x118 +1 x125 +1 x132 +1 x140 +1 x147 +1 x162 +1 x169 +1 x177 +1 x184 +1 x191 +1 x199 +1 x206 +1 x213 +1 x221 +1 x228 +1 x235 +1 x243 +1 x250 +1 x265 +1 x272 +1 x280 +1 x287 +1 x294 +1 x302 +1 x309 +1 x316 +1 x324 +1 x331 +1 x338 +1 x346 +1 x353 +1 x368 +1 x375 +1 x383 +1 x390 +1 x397 >= 1 ;
+1 x7 +1 x15 +1 x22 +1 x29 +1 x36 +1 x44 +1 x51 +1 x58 +1 x66 +1 x73 +1 x80 +1 x95 +1 x102 +1 x109 +1 x117 +1 x124 +1 x131 +1 x146 +1 x153 +1 x160 +1 x168 +1 x175 +1 x182 +1 x190 +1 x197 +1 x204 +1 x211 +1 x219 +1 x226 +1 x233 +1 x241 +1 x248 +1 x255 +1 x270 +1 x277 +1 x284 +1 x292 +1 x299 +1 x306 +1 x321 +1 x328 +1 x335 +1 x343 +1 x350 +1 x357 +1 x365 +1 x372 +1 x379 +1 x386 +1 x394 >= 1 ;
+1 x7 +1 x14 +1 x22 +1 x29 +1 x36 +1 x43 +1 x51 +1 x58 +1 x65 +1 x72 +1 x87 +1 x94 +1 x101 +1 x108 +1 x116 +1 x123 +1 x130 +1 x137 +1 x152 +1 x159 +1 x166 +1 x173 +1 x181 +1 x188 +1 x195 +1 x202 +1 x217 +1 x224 +1 x231 +1 x238 +1 x246 +1 x253 +1 x260 +1 x267 +1 x275 +1 x282 +1 x289 +1 x296 +1 x311 +1 x318 +1 x325 +1 x332 +1 x340 +1 x347 +1 x354 +1 x361 +1 x376 +1 x383 +1 x390 +1 x397 >= 1 ;
+1 x7 +1 x14 +1 x29 +1 x36 +1 x43 +1 x50 +1 x57 +1 x64 +1 x72 +1 x79 +1 x86 +1 x93 +1 x100 +1 x107 +1 x115 +1 x122 +1 x129 +1 x136 +1 x143 +1 x150 +1 x165 +1 x172 +1 x179 +1 x186 +1 x193 +1 x208 +1 x215 +1 x222 +1 x229 +1 x236 +1 x251 +1 x258 +1 x265 +1 x272 +1 x279 +1 x286 +1 x294 +1 x301 +1 x308 +1 x315 +1 x322 +1 x329 +1 x337 +1 x344 +1 x351 +1 x358 +1 x365 +1 x372 +1 x387 +1 x394 >= 1 ;
+1 x7 +1 x14 +1 x21 +1 x28 +1 x43 +1 x50 +1 x57 +1 x64 +1 x71 +1 x78 +1 x85 +1 x92 +1 x99 +1 x114 +1 x121 +1 x128 +1 x135 +1 x142 +1 x149 +1 x156 +1 x163 +1 x170 +1 x177 +1 x192 +1 x199 +1 x206 +1 x213 +1 x220 +1 x227 +1 x234 +1 x241 +1 x248 +1 x263 +1 x270 +1 x277 +1 x284 +1 x291 +1 x298 +1 x305 +1 x312 +1 x319 +1 x334 +1 x341 +1 x348 +1 x355 +1 x362 +1 x369 +1 x376 +1 x383 +1 x390 >= 1 ;
+1 x7 +1 x14 +1 x21 +1 x28 +1 x35 +1 x42 +1 x49 +1 x56 +1 x63 +1 x70 +1 x77 +1 x84 +1 x113 +1 x120 +1 x127 +1 x134 +1 x141 +1 x148 +1 x155 +1 x162 +1 x169 +1 x176 +1 x183 +1 x190 +1 x197 +1 x204 +1 x211 +1 x218 +1 x225 +1 x232 +1 x239 +1 x246 +1 x253 +1 x260 +1 x267 +1 x274 +1 x281 +1 x288 +1 x317 +1 x324 +1 x331 +1 x338 +1 x345 +1 x352 +1 x359 +1 x366 +1 x373 +1 x380 +1 x387 +1 x394 >= 1 ;
+1 x7 +1 x14 +1 x21 +1 x28 +1 x35 +1 x42 +1 x49 +1 x56 +1 x63 +1 x70 +1 x77 +1 x84 +1 x91 +1 x98 +1 x105 +1 x112 +1 x153 +1 x160 +1 x167 +1 x174 +1 x181 +1 x188 +1 x195 +1 x202 +1 x209 +1 x216 +1 x223 +1 x230 +1 x237 +1 x244 +1 x251 +1 x258 +1 x265 +1 x272 +1 x279 +1 x286 +1 x293 +1 x300 +1 x307 +1 x314 +1 x321 +1 x328 +1 x335 +1 x342 +1 x349 +1 x356 +1 x363 +1 x370 +1 x377 +1 x384 >= 1 ;
+1 x7 +1 x14 +1 x21 +1 x28 +1 x35 +1 x48 +1 x55 +1 x62 +1 x69 +1 x76 +1 x83 +1 x90 +1 x97 +1 x104 +1 x111 +1 x131 +1 x138 +1 x145 +1 x152 +1 x159 +1 x166 +1 x173 +1 x180 +1 x187 +1 x194 +1 x207 +1 x214 +1 x221 +1 x228 +1 x235 +1 x242 +1 x249 +1 x256 +1 x263 +1 x270 +1 x290 +1 x297 +1 x304 +1 x311 +1 x318 +1 x325 +1 x332 +1 x339 +1 x346 +1 x353 +1 x366 +1 x373 +1 x380 +1 x387 +1 x394 >= 1 ;
+1 x7 +1 x14 +1 x27 +1 x34 +1 x41 +1 x48 +1 x55 +1 x62 +1 x75 +1 x82 +1 x89 +1 x96 +1 x103 +1 x110 +1 x123 +1 x130 +1 x137 +1 x144 +1 x151 +1 x158 +1 x171 +1 x178 +1 x185 +1 x192 +1 x199 +1 x206 +1 x219 +1 x226 +1 x233 +1 x240 +1 x247 +1 x254 +1 x267 +1 x274 +1 x281 +1 x288 +1 x295 +1 x302 +1 x315 +1 x322 +1 x329 +1 x336 +1 x343 +1 x350 +1 x363 +1 x370 +1 x377 +1 x384 +1 x391 +1 x398 >= 1 ;
+1 x7 +1 x14 +1 x20 +1 x27 +1 x34 +1 x41 +1 x48 +1 x54 +1 x61 +1 x68 +1 x75 +1 x88 +1 x95 +1 x102 +1 x109 +1 x122 +1 x129 +1 x136 +1 x143 +1 x156 +1 x163 +1 x170 +1 x177 +1 x190 +1 x197 +1 x204 +1 x211 +1 x224 +1 x231 +1 x238 +1 x245 +1 x258 +1 x265 +1 x272 +1 x279 +1 x292 +1 x299 +1 x306 +1 x313 +1 x326 +1 x333 +1 x340 +1 x347 +1 x353 +1 x360 +1 x367 +1 x374 +1 x381 +1 x387 +1 x394 >= 1 ;
+1 x7 +1 x20 +1 x27 +1 x34 +1 x47 +1 x54 +1 x61 +1 x67 +1 x74 +1 x81 +1 x88 +1 x94 +1 x101 +1 x108 +1 x121 +1 x128 +1 x135 +1 x148 +1 x155 +1 x162 +1 x175 +1 x182 +1 x189 +1 x202 +1 x209 +1 x216 +1 x222 +1 x229 +1 x236 +1 x243 +1 x249 +1 x256 +1 x263 +1 x270 +1 x276 +1 x283 +1 x290 +1 x303 +1 x310 +1 x317 +1 x330 +1 x337 +1 x344 +1 x357 +1 x364 +1 x371 +1 x377 +1 x384 +1 x391 +1 x398 >= 1 ;
+1 x7 +1 x13 +1 x20 +1 x27 +1 x33 +1 x40 +1 x47 +1 x60 +1 x67 +1 x80 +1 x87 +1 x100 +1 x107 +1 x114 +1 x120 +1 x127 +1 x134 +1 x140 +1 x147 +1 x154 +1 x160 +1 x167 +1 x174 +1 x187 +1 x194 +1 x207 +1 x214 +1 x227 +1 x234 +1 x241 +1 x247 +1 x254 +1 x261 +1 x267 +1 x274 +1 x281 +1 x287 +1 x294 +1 x301 +1 x314 +1 x321 +1 x334 +1 x341 +1 x354 +1 x361 +1 x368 +1 x374 +1 x381 +1 x388 +1 x394 >= 1 ;
+1 x7 +1 x13 +1 x20 +1 x33 +1 x40 +1 x46 +1 x53 +1 x60 +1 x66 +1 x73 +1 x86 +1 x93 +1 x106 +1 x113 +1 x119 +1 x126 +1 x139 +1 x146 +1 x159 +1 x166 +1 x172 +1 x179 +1 x186 +1 x192 +1 x199 +1 x212 +1 x219 +1 x225 +1 x232 +1 x239 +1 x245 +1 x252 +1 x265 +1 x272 +1 x278 +1 x285 +1 x292 +1 x298 +1 x305 +1 x318 +1 x325 +1 x331 +1 x338 +1 x345 +1 x351 +1 x358 +1 x371 +1 x378 +1 x391 +1 x398 >= 1 ;
+1 x13 +1 x20 +1 x26 +1 x33 +1 x46 +1 x53 +1 x59 +1 x66 +1 x72 +1 x79 +1 x92 +1 x99 +1 x105 +1 x112 +1 x118 +1 x125 +1 x138 +1 x145 +1 x151 +1 x158 +1 x164 +1 x171 +1 x184 +1 x191 +1 x197 +1 x204 +1 x210 +1 x217 +1 x230 +1 x237 +1 x243 +1 x250 +1 x256 +1 x263 +1 x276 +1 x283 +1 x289 +1 x296 +1 x302 +1 x309 +1 x322 +1 x329 +1 x335 +1 x342 +1 x348 +1 x355 +1 x368 +1 x375 +1 x381 +1 x388 >= 1 ;
+1 x13 +1 x26 +1 x33 +1 x39 +1 x46 +1 x52 +1 x59 +1 x65 +1 x72 +1 x78 +1 x85 +1 x91 +1 x98 +1 x104 +1 x111 +1 x117 +1 x124 +1 x130 +1 x137 +1 x150 +1 x163 +1 x176 +1 x189 +1 x196 +1 x202 +1 x209 +1 x215 +1 x222 +1 x228 +1 x235 +1 x241 +1 x248 +1 x254 +1 x261 +1 x267 +1 x274 +1 x280 +1 x287 +1 x300 +1 x313 +1 x326 +1 x339 +1 x352 +1 x359 +1 x365 +1 x372 +1 x378 +1 x385 +1 x391 +1 x398 >= 1 ;
+1 x13 +1 x19 +1 x26 +1 x32 +1 x39 +1 x45 +1 x52 +1 x58 +1 x65 +1 x71 +1 x78 +1 x84 +1 x97 +1 x110 +1 x123 +1 x129 +1 x136 +1 x142 +1 x149 +1 x155 +1 x162 +1 x168 +1 x175 +1 x181 +1 x194 +1 x207 +1 x220 +1 x226 +1 x233 +1 x239 +1 x246 +1 x252 +1 x259 +1 x265 +1 x272 +1 x278 +1 x291 +1 x304 +1 x317 +1 x323 +1 x330 +1 x336 +1 x343 +1 x349 +1 x356 +1 x362 +1 x369 +1 x375 +1 x382 +1 x388 >= 1 ;
+1 x13 +1 x19 +1 x26 +1 x32 +1 x45 +1 x51 +1 x58 +1 x64 +1 x77 +1 x90 +1 x96 +1 x103 +1 x109 +1 x122 +1 x128 +1 x135 +1 x141 +1 x154 +1 x160 +1 x167 +1 x173 +1 x180 +1 x186 +1 x199 +1 x205 +1 x212 +1 x218 +1 x231 +1 x237 +1 x244 +1 x250 +1 x257 +1 x263 +1 x276 +1 x282 +1 x289 +1 x295 +1 x308 +1 x314 +1 x321 +1 x327 +1 x334 +1 x340 +1 x353 +1 x359 +1 x366 +1 x372 +1 x385 +1 x391 +1 x398 >= 1 ;
+1 x6 +1 x13 +1 x19 +1 x32 +1 x38 +1 x51 +1 x57 +1 x64 +1 x70 +1 x76 +1 x83 +1 x89 +1 x102 +1 x108 +1 x121 +1 x127 +1 x134 +1 x140 +1 x146 +1 x153 +1 x159 +1 x172 +1 x178 +1 x191 +1 x197 +1 x204 +1 x210 +1 x223 +1 x229 +1 x242 +1 x248 +1 x255 +1 x261 +1 x267 +1 x274 +1 x280 +1 x293 +1 x299 +1 x312 +1 x318 +1 x325 +1 x331 +1 x337 +1 x344 +1 x350 +1 x363 +1 x369 +1 x382 +1 x388 +1 x395 >= 1 ;
+1 x6 +1 x13 +1 x19 +1 x25 +1 x38 +1 x44 +1 x57 +1 x63 +1 x76 +1 x82 +1 x95 +1 x101 +1 x107 +1 x114 +1 x120 +1 x126 +1 x133 +1 x139 +1 x145 +1 x158 +1 x164 +1 x177 +1 x183 +1 x196 +1 x202 +1 x208 +1 x215 +1 x221 +1 x227 +1 x234 +1 x240 +1 x246 +1 x259 +1 x265 +1 x278 +1 x284 +1 x297 +1 x303 +1 x316 +1 x322 +1 x328 +1 x335 +1 x341 +1 x347 +1 x354 +1 x360 +1 x366 +1 x379 +1 x385 +1 x398 >= 1 ;
+1 x6 +1 x19 +1 x25 +1 x31 +1 x44 +1 x50 +1 x56 +1 x63 +1 x69 +1 x75 +1 x88 +1 x94 +1 x100 +1 x113 +1 x119 +1 x125 +1 x138 +1 x144 +1 x150 +1 x157 +1 x163 +1 x169 +1 x182 +1 x188 +1 x194 +1 x207 +1 x213 +1 x219 +1 x232 +1 x238 +1 x244 +1 x251 +1 x257 +1 x263 +1 x276 +1 x282 +1 x288 +1 x301 +1 x307 +1 x313 +1 x326 +1 x332 +1 x338 +1 x345 +1 x351 +1 x357 +1 x370 +1 x376 +1 x382 +1 x395 >= 1 ;
+1 x6 +1 x19 +1 x25 +1 x31 +1 x37 +1 x50 +1 x56 +1 x62 +1 x68 +1 x81 +1 x87 +1 x93 +1 x106 +1 x112 +1 x118 +1 x124 +1 x137 +1 x143 +1 x149 +1 x162 +1 x168 +1 x174 +1 x180 +1 x193 +1 x199 +1 x205 +1 x211 +1 x224 +1 x230 +1 x236 +1 x249 +1 x255 +1 x261 +1 x267 +1 x280 +1 x286 +1 x292 +1 x305 +1 x311 +1 x317 +1 x323 +1 x336 +1 x342 +1 x348 +1 x354 +1 x367 +1 x373 +1 x379 +1 x392 +1 x398 >= 1 ;
+1 x6 +1 x12 +1 x25 +1 x31 +1 x37 +1 x43 +1 x49 +1 x62 +1 x68 +1 x74 +1 x80 +1 x86 +1 x99 +1 x105 +1 x111 +1 x117 +1 x123 +1 x136 +1 x142 +1 x148 +1 x154 +1 x173 +1 x179 +1 x185 +1 x191 +1 x210 +1 x216 +1 x222 +1 x228 +1 x247 +1 x253 +1 x259 +1 x265 +1 x278 +1 x284 +1 x290 +1 x296 +1 x302 +1 x315 +1 x321 +1 x327 +1 x333 +1 x339 +1 x352 +1 x358 +1 x364 +1 x370 +1 x376 +1 x389 +1 x395 >= 1 ;
+1 x6 +1 x12 +1 x18 +1 x37 +1 x43 +1 x49 +1 x55 +1 x61 +1 x67 +1 x86 +1 x92 +1 x98 +1 x104 +1 x110 +1 x116 +1 x135 +1 x141 +1 x147 +1 x153 +1 x159 +1 x165 +1 x184 +1 x190 +1 x196 +1 x202 +1 x208 +1 x214 +1 x233 +1 x239 +1 x245 +1 x251 +1 x257 +1 x263 +1 x269 +1 x282 +1 x288 +1 x294 +1 x300 +1 x306 +1 x312 +1 x318 +1 x337 +1 x343 +1 x349 +1 x355 +1 x361 +1 x367 +1 x386 +1 x392 +1 x398 >= 1 ;
+1 x6 +1 x12 +1 x18 +1 x24 +1 x30 +1 x55 +1 x61 +1 x67 +1 x73 +1 x79 +1 x85 +1 x91 +1 x97 +1 x103 +1 x109 +1 x134 +1 x140 +1 x146 +1 x152 +1 x158 +1 x164 +1 x170 +1 x176 +1 x182 +1 x188 +1 x213 +1 x219 +1 x225 +1 x231 +1 x237 +1 x243 +1 x249 +1 x255 +1 x261 +1 x267 +1 x292 +1 x298 +1 x304 +1 x310 +1 x316 +1 x322 +1 x328 +1 x334 +1 x340 +1 x346 +1 x371 +1 x377 +1 x383 +1 x389 +1 x395 >= 1 ;
+1 x6 +1 x12 +1 x18 +1 x24 +1 x30 +1 x36 +1 x42 +1 x48 +1 x54 +1 x60 +1 x66 +1 x72 +1 x127 +1 x133 +1 x139 +1 x145 +1 x151 +1 x157 +1 x163 +1 x169 +1 x175 +1 x181 +1 x187 +1 x193 +1 x199 +1 x205 +1 x211 +1 x217 +1 x223 +1 x229 +1 x235 +1 x241 +1 x247 +1 x253 +1 x259 +1 x265 +1 x271 +1 x326 +1 x332 +1 x338 +1 x344 +1 x350 +1 x356 +1 x362 +1 x368 +1 x374 +1 x380 +1 x386 +1 x392 +1 x398 >= 1 ;
+1 x6 +1 x12 +1 x18 +1 x24 +1 x30 +1 x36 +1 x42 +1 x48 +1 x54 +1 x60 +1 x66 +1 x72 +1 x78 +1 x84 +1 x90 +1 x96 +1 x102 +1 x108 +1 x114 +1 x120 +1 x126 +1 x132 +1 x138 +1 x144 +1 x150 +1 x251 +1 x257 +1 x263 +1 x269 +1 x275 +1 x281 +1 x287 +1 x293 +1 x299 +1 x305 +1 x311 +1 x317 +1 x323 +1 x329 +1 x335 +1 x341 +1 x347 +1 x353 +1 x359 +1 x365 +1 x371 +1 x377 +1 x383 +1 x389 +1 x395 >= 1 ;
+1 x6 +1 x12 +1 x18 +1 x24 +1 x30 +1 x36 +1 x65 +1 x71 +1 x77 +1 x83 +1 x89 +1 x95 +1 x101 +1 x107 +1 x113 +1 x119 +1 x125 +1 x131 +1 x137 +1 x166 +1 x172 +1 x178 +1 x184 +1 x190 +1 x196 +1 x202 +1 x208 +1 x214 +1 x220 +1 x226 +1 x232 +1 x238 +1 x267 +1 x273 +1 x279 +1 x285 +1 x291 +1 x297 +1 x303 +1 x309 +1 x315 +1 x321 +1 x327 +1 x333 +1 x368 +1 x374 +1 x380 +1 x386 +1 x392 +1 x398 >= 1 ;
+1 x6 +1 x12 +1 x18 +1 x41 +1 x47 +1 x53 +1 x59 +1 x65 +1 x71 +1 x77 +1 x94 +1 x100 +1 x106 +1 x112 +1 x118 +1 x124 +1 x130 +1 x136 +1 x153 +1 x159 +1 x165 +1 x171 +1 x177 +1 x183 +1 x189 +1 x212 +1 x218 +1 x224 +1 x230 +1 x236 +1 x242 +1 x248 +1 x265 +1 x271 +1 x277 +1 x283 +1 x289 +1 x295 +1 x301 +1 x307 +1 x324 +1 x330 +1 x336 +1 x342 +1 x348 +1 x354 +1 x360 +1 x383 +1 x389 +1 x395 >= 1 ;
+1 x6 +1 x12 +1 x29 +1 x35 +1 x41 +1 x47 +1 x53 +1 x70 +1 x76 +1 x82 +1 x88 +1 x94 +1 x111 +1 x117 +1 x123 +1 x129 +1 x135 +1 x146 +1 x152 +1 x158 +1 x164 +1 x170 +1 x187 +1 x193 +1 x199 +1 x205 +1 x211 +1 x228 +1 x234 +1 x240 +1 x246 +1 x252 +1 x269 +1 x275 +1 x281 +1 x287 +1 x293 +1 x310 +1 x316 +1 x322 +1 x328 +1 x334 +1 x351 +1 x357 +1 x363 +1 x369 +1 x375 +1 x386 +1 x392 +1 x398 >= 1 ;
+1 x6 +1 x23 +1 x29 +1 x35 +1 x41 +1 x52 +1 x58 +1 x64 +1 x70 +1 x81 +1 x87 +1 x93 +1 x99 +1 x116 +1 x122 +1 x128 +1 x134 +1 x145 +1 x151 +1 x157 +1 x163 +1 x174 +1 x180 +1 x186 +1 x192 +1 x209 +1 x215 +1 x221 +1 x227 +1 x238 +1 x244 +1 x250 +1 x256 +1 x267 +1 x273 +1 x279 +1 x285 +1 x302 +1 x308 +1 x314 +1 x320 +1 x331 +1 x337 +1 x343 +1 x349 +1 x360 +1 x366 +1 x372 +1 x378 +1 x395 >= 1 ;
+1 x6 +1 x17 +1 x23 +1 x29 +1 x46 +1 x52 +1 x58 +1 x69 +1 x75 +1 x81 +1 x92 +1 x98 +1 x104 +1 x121 +1 x127 +1 x133 +1 x144 +1 x150 +1 x156 +1 x167 +1 x173 +1 x179 +1 x196 +1 x202 +1 x208 +1 x219 +1 x225 +1 x231 +1 x242 +1 x248 +1 x254 +1 x260 +1 x271 +1 x277 +1 x283 +1 x294 +1 x300 +1 x306 +1 x317 +1 x323 +1 x329 +1 x335 +1 x346 +1 x352 +1 x358 +1 x369 +1 x375 +1 x381 +1 x392 +1 x398 >= 1 ;
+1 x6 +1 x17 +1 x23 +1 x29 +1 x40 +1 x46 +1 x57 +1 x63 +1 x69 +1 x80 +1 x86 +1 x92 +1 x103 +1 x109 +1 x120 +1 x126 +1 x132 +1 x143 +1 x149 +1 x155 +1 x166 +1 x172 +1 x183 +1 x189 +1 x195 +1 x206 +1 x212 +1 x218 +1 x229 +1 x235 +1 x246 +1 x252 +1 x258 +1 x269 +1 x275 +1 x281 +1 x292 +1 x298 +1 x309 +1 x315 +1 x321 +1 x332 +1 x338 +1 x344 +1 x355 +1 x361 +1 x372 +1 x378 +1 x384 +1 x395 >= 1 ;
+1 x6 +1 x17 +1 x23 +1 x34 +1 x40 +1 x51 +1 x57 +1 x68 +1 x74 +1 x85 +1 x91 +1 x97 +1 x108 +1 x114 +1 x125 +1 x131 +1 x142 +1 x148 +1 x159 +1 x165 +1 x176 +1 x182 +1 x188 +1 x199 +1 x205 +1 x216 +1 x222 +1 x233 +1 x239 +1 x250 +1 x256 +1 x262 +1 x267 +1 x273 +1 x279 +1 x290 +1 x296 +1 x307 +1 x313 +1 x324 +1 x330 +1 x341 +1 x347 +1 x353 +1 x358 +1 x364 +1 x370 +1 x381 +1 x387 +1 x398 >= 1 ;
+1 x6 +1 x11 +1 x17 +1 x28 +1 x34 +1 x45 +1 x51 +1 x62 +1 x68 +1 x79 +1 x85 +1 x96 +1 x102 +1 x107 +1 x113 +1 x124 +1 x130 +1 x141 +1 x147 +1 x158 +1 x164 +1 x175 +1 x181 +1 x192 +1 x198 +1 x203 +1 x209 +1 x220 +1 x226 +1 x237 +1 x243 +1 x254 +1 x260 +1 x271 +1 x277 +1 x288 +1 x294 +1 x299 +1 x305 +1 x316 +1 x322 +1 x333 +1 x339 +1 x350 +1 x356 +1 x367 +1 x373 +1 x384 +1 x390 +1 x395 >= 1 ;
+1 x11 +1 x17 +1 x28 +1 x34 +1 x39 +1 x45 +1 x56 +1 x62 +1 x67 +1 x73 +1 x84 +1 x90 +1 x95 +1 x101 +1 x112 +1 x118 +1 x129 +1 x140 +1 x146 +1 x157 +1 x168 +1 x174 +1 x185 +1 x191 +1 x196 +1 x202 +1 x213 +1 x219 +1 x224 +1 x230 +1 x241 +1 x247 +1 x258 +1 x269 +1 x275 +1 x286 +1 x297 +1 x303 +1 x314 +1 x320 +1 x325 +1 x331 +1 x342 +1 x348 +1 x353 +1 x359 +1 x370 +1 x376 +1 x387 +1 x398 >= 1 ;
+1 x11 +1 x17 +1 x22 +1 x28 +1 x39 +1 x50 +1 x56 +1 x61 +1 x67 +1 x78 +1 x89 +1 x95 +1 x100 +1 x106 +1 x117 +1 x128 +1 x134 +1 x139 +1 x145 +1 x156 +1 x167 +1 x173 +1 x178 +1 x184 +1 x195 +1 x206 +1 x217 +1 x223 +1 x228 +1 x234 +1 x245 +1 x256 +1 x262 +1 x267 +1 x273 +1 x284 +1 x295 +1 x301 +1 x306 +1 x312 +1 x323 +1 x334 +1 x340 +1 x345 +1 x351 +1 x362 +1 x373 +1 x379 +1 x384 +1 x390 >= 1 ;
+1 x11 +1 x22 +1 x28 +1 x33 +1 x39 +1 x44 +1 x50 +1 x55 +1 x61 +1 x72 +1 x83 +1 x94 +1 x105 +1 x116 +1 x122 +1 x127 +1 x133 +1 x138 +1 x144 +1 x149 +1 x155 +1 x166 +1 x177 +1 x188 +1 x199 +1 x210 +1 x216 +1 x221 +1 x227 +1 x232 +1 x238 +1 x249 +1 x260 +1 x271 +1 x282 +1 x293 +1 x299 +1 x304 +1 x310 +1 x315 +1 x321 +1 x326 +1 x332 +1 x343 +1 x354 +1 x365 +1 x376 +1 x387 +1 x393 +1 x398 >= 1 ;
+1 x11 +1 x22 +1 x33 +1 x44 +1 x55 +1 x66 +1 x77 +1 x88 +1 x99 +1 x110 +1 x121 +1 x126 +1 x132 +1 x137 +1 x143 +1 x148 +1 x154 +1 x159 +1 x165 +1 x170 +1 x176 +1 x181 +1 x187 +1 x192 +1 x198 +1 x203 +1 x209 +1 x214 +1 x220 +1 x225 +1 x231 +1 x236 +1 x242 +1 x247 +1 x253 +1 x258 +1 x264 +1 x269 +1 x275 +1 x280 +1 x291 +1 x302 +1 x313 +1 x324 +1 x335 +1 x346 +1 x357 +1 x368 +1 x379 +1 x390 >= 1 ;
+1 x11 +1 x22 +1 x27 +1 x33 +1 x38 +1 x49 +1 x60 +1 x71 +1 x82 +1 x87 +1 x93 +1 x98 +1 x104 +1 x109 +1 x120 +1 x131 +1 x142 +1 x147 +1 x153 +1 x158 +1 x164 +1 x169 +1 x180 +1 x191 +1 x202 +1 x207 +1 x213 +1 x218 +1 x224 +1 x229 +1 x240 +1 x251 +1 x262 +1 x267 +1 x273 +1 x278 +1 x284 +1 x289 +1 x300 +1 x311 +1 x322 +1 x333 +1 x338 +1 x344 +1 x349 +1 x360 +1 x371 +1 x382 +1 x393 +1 x398 >= 1 ;
+1 x11 +1 x16 +1 x22 +1 x27 +1 x38 +1 x49 +1 x54 +1 x65 +1 x76 +1 x81 +1 x87 +1 x92 +1 x103 +1 x114 +1 x119 +1 x130 +1 x141 +1 x146 +1 x152 +1 x157 +1 x168 +1 x179 +1 x184 +1 x190 +1 x195 +1 x206 +1 x211 +1 x217 +1 x222 +1 x233 +1 x244 +1 x249 +1 x255 +1 x260 +1 x271 +1 x282 +1 x287 +1 x298 +1 x309 +1 x314 +1 x320 +1 x325 +1 x336 +1 x347 +1 x352 +1 x363 +1 x374 +1 x379 +1 x385 +1 x390 >= 1 ;
+1 x11 +1 x16 +1 x27 +1 x32 +1 x38 +1 x43 +1 x54 +1 x59 +1 x70 +1 x81 +1 x86 +1 x97 +1 x102 +1 x113 +1 x124 +1 x129 +1 x140 +1 x145 +1 x151 +1 x156 +1 x167 +1 x172 +1 x183 +1 x194 +1 x199 +1 x210 +1 x215 +1 x221 +1 x226 +1 x237 +1 x242 +1 x253 +1 x264 +1 x269 +1 x280 +1 x285 +1 x296 +1 x307 +1 x312 +1 x323 +1 x328 +1 x334 +1 x339 +1 x350 +1 x355 +1 x366 +1 x377 +1 x382 +1 x393 +1 x398 >= 1 ;
+1 x11 +1 x16 +1 x27 +1 x32 +1 x43 +1 x48 +1 x59 +1 x64 +1 x75 +1 x80 +1 x91 +1 x96 +1 x107 +1 x112 +1 x123 +1 x128 +1 x134 +1 x139 +1 x150 +1 x155 +1 x166 +1 x171 +1 x182 +1 x187 +1 x198 +1 x203 +1 x214 +1 x219 +1 x230 +1 x235 +1 x246 +1 x251 +1 x262 +1 x267 +1 x273 +1 x278 +1 x289 +1 x294 +1 x305 +1 x310 +1 x321 +1 x326 +1 x337 +1 x342 +1 x353 +1 x358 +1 x369 +1 x374 +1 x385 +1 x390 >= 1 ;
+1 x5 +1 x16 +1 x21 +1 x32 +1 x37 +1 x48 +1 x53 +1 x64 +1 x69 +1 x80 +1 x85 +1 x90 +1 x101 +1 x106 +1 x117 +1 x122 +1 x133 +1 x138 +1 x149 +1 x154 +1 x170 +1 x175 +1 x186 +1 x191 +1 x202 +1 x207 +1 x218 +1 x223 +1 x234 +1 x239 +1 x244 +1 x255 +1 x260 +1 x271 +1 x276 +1 x287 +1 x292 +1 x303 +1 x308 +1 x319 +1 x324 +1 x329 +1 x340 +1 x345 +1 x356 +1 x361 +1 x372 +1 x377 +1 x388 +1 x393 >= 1 ;
+1 x5 +1 x16 +1 x21 +1 x37 +1 x42 +1 x53 +1 x58 +1 x63 +1 x74 +1 x79 +1 x90 +1 x95 +1 x100 +1 x111 +1 x116 +1 x132 +1 x137 +1 x148 +1 x153 +1 x158 +1 x169 +1 x174 +1 x185 +1 x190 +1 x195 +1 x206 +1 x211 +1 x216 +1 x227 +1 x232 +1 x243 +1 x248 +1 x253 +1 x264 +1 x269 +1 x285 +1 x290 +1 x301 +1 x306 +1 x311 +1 x322 +1 x327 +1 x338 +1 x343 +1 x348 +1 x359 +1 x364 +1 x380 +1 x385 +1 x396 >= 1 ;
+1 x5 +1 x16 +1 x21 +1 x26 +1 x37 +1 x42 +1 x47 +1 x63 +1 x68 +1 x84 +1 x89 +1 x105 +1 x110 +1 x115 +1 x126 +1 x131 +1 x136 +1 x147 +1 x152 +1 x157 +1 x168 +1 x173 +1 x178 +1 x189 +1 x194 +1 x199 +1 x210 +1 x215 +1 x220 +1 x236 +1 x241 +1 x257 +1 x262 +1 x278 +1 x283 +1 x288 +1 x299 +1 x304 +1 x309 +1 x320 +1 x325 +1 x330 +1 x341 +1 x346 +1 x351 +1 x362 +1 x367 +1 x372 +1 x388 +1 x393 >= 1 ;
+1 x5 +1 x21 +1 x26 +1 x31 +1 x47 +1 x52 +1 x57 +1 x68 +1 x73 +1 x78 +1 x83 +1 x94 +1 x99 +1 x104 +1 x120 +1 x125 +1 x130 +1 x146 +1 x151 +1 x156 +1 x172 +1 x177 +1 x182 +1 x193 +1 x198 +1 x203 +1 x208 +1 x219 +1 x224 +1 x229 +1 x245 +1 x250 +1 x255 +1 x271 +1 x276 +1 x281 +1 x297 +1 x302 +1 x307 +1 x318 +1 x323 +1 x328 +1 x333 +1 x344 +1 x349 +1 x354 +1 x370 +1 x375 +1 x380 +1 x396 >= 1 ;
+1 x5 +1 x21 +1 x26 +1 x31 +1 x36 +1 x52 +1 x57 +1 x62 +1 x67 +1 x83 +1 x88 +1 x93 +1 x98 +1 x114 +1 x119 +1 x124 +1 x140 +1 x145 +1 x150 +1 x155 +1 x171 +1 x176 +1 x181 +1 x186 +1 x202 +1 x207 +1 x212 +1 x217 +1 x233 +1 x238 +1 x243 +1 x259 +1 x264 +1 x269 +1 x274 +1 x290 +1 x295 +1 x300 +1 x305 +1 x321 +1 x326 +1 x331 +1 x336 +1 x352 +1 x357 +1 x362 +1 x378 +1 x383 +1 x388 +1 x393 >= 1 ;
+1 x5 +1 x10 +1 x26 +1 x31 +1 x36 +1 x41 +1 x46 +1 x62 +1 x67 +1 x72 +1 x77 +1 x82 +1 x98 +1 x103 +1 x108 +1 x113 +1 x118 +1 x139 +1 x144 +1 x149 +1 x154 +1 x175 +1 x180 +1 x185 +1 x190 +1 x211 +1 x216 +1 x221 +1 x226 +1 x247 +1 x252 +1 x257 +1 x262 +1 x283 +1 x288 +1 x293 +1 x298 +1 x303 +1 x319 +1 x324 +1 x329 +1 x334 +1 x339 +1 x355 +1 x360 +1 x365 +1 x370 +1 x375 +1 x391 +1 x396 >= 1 ;
+1 x5 +1 x10 +1 x36 +1 x41 +1 x46 +1 x51 +1 x56 +1 x61 +1 x82 +1 x87 +1 x92 +1 x97 +1 x102 +1 x107 +1 x128 +1 x133 +1 x138 +1 x143 +1 x148 +1 x153 +1 x174 +1 x179 +1 x184 +1 x189 +1 x194 +1 x199 +1 x225 +1 x230 +1 x235 +1 x240 +1 x245 +1 x250 +1 x271 +1 x276 +1 x281 +1 x286 +1 x291 +1 x296 +1 x317 +1 x322 +1 x327 +1 x332 +1 x337 +1 x342 +1 x363 +1 x368 +1 x373 +1 x378 +1 x383 +1 x388 >= 1 ;
+1 x5 +1 x10 +1 x15 +1 x20 +1 x46 +1 x51 +1 x56 +1 x61 +1 x66 +1 x71 +1 x76 +1 x81 +1 x86 +1 x117 +1 x122 +1 x127 +1 x132 +1 x137 +1 x142 +1 x147 +1 x152 +1 x183 +1 x188 +1 x193 +1 x198 +1 x203 +1 x208 +1 x213 +1 x218 +1 x249 +1 x254 +1 x259 +1 x264 +1 x269 +1 x274 +1 x279 +1 x284 +1 x315 +1 x320 +1 x325 +1 x330 +1 x335 +1 x340 +1 x345 +1 x350 +1 x355 +1 x381 +1 x386 +1 x391 +1 x396 >= 1 ;
+1 x5 +1 x10 +1 x15 +1 x20 +1 x25 +1 x30 +1 x35 +1 x81 +1 x86 +1 x91 +1 x96 +1 x101 +1 x106 +1 x111 +1 x116 +1 x121 +1 x126 +1 x131 +1 x136 +1 x141 +1 x146 +1 x197 +1 x202 +1 x207 +1 x212 +1 x217 +1 x222 +1 x227 +1 x232 +1 x237 +1 x242 +1 x247 +1 x252 +1 x257 +1 x262 +1 x308 +1 x313 +1 x318 +1 x323 +1 x328 +1 x333 +1 x338 +1 x343 +1 x348 +1 x353 +1 x358 +1 x363 +1 x368 +1 x373 +1 x378 >= 1 ;
+1 x5 +1 x10 +1 x15 +1 x20 +1 x25 +1 x30 +1 x35 +1 x40 +1 x45 +1 x50 +1 x55 +1 x60 +1 x65 +1 x70 +1 x75 +1 x80 +1 x85 +1 x90 +1 x95 +1 x100 +1 x105 +1 x110 +1 x115 +1 x120 +1 x125 +1 x276 +1 x281 +1 x286 +1 x291 +1 x296 +1 x301 +1 x306 +1 x311 +1 x316 +1 x321 +1 x326 +1 x331 +1 x336 +1 x341 +1 x346 +1 x351 +1 x356 +1 x361 +1 x366 +1 x371 +1 x376 +1 x381 +1 x386 +1 x391 +1 x396 >= 1 ;
+1 x5 +1 x10 +1 x15 +1 x20 +1 x25 +1 x30 +1 x35 +1 x40 +1 x45 +1 x50 +1 x55 +1 x60 +1 x65 +1 x70 +1 x75 +1 x80 +1 x184 +1 x189 +1 x194 +1 x199 +1 x204 +1 x209 +1 x214 +1 x219 +1 x224 +1 x229 +1 x234 +1 x239 +1 x244 +1 x249 +1 x254 +1 x259 +1 x264 +1 x269 +1 x274 +1 x279 +1 x284 +1 x289 +1 x294 +1 x299 +1 x304 +1 x309 +1 x314 +1 x319 +1 x324 +1 x329 +1 x334 +1 x339 +1 x344 +1 x349 >= 1 ;
+1 x5 +1 x10 +1 x15 +1 x20 +1 x25 +1 x30 +1 x69 +1 x74 +1 x79 +1 x84 +1 x89 +1 x94 +1 x99 +1 x104 +1 x109 +1 x114 +1 x119 +1 x124 +1 x129 +1 x173 +1 x178 +1 x183 +1 x188 +1 x193 +1 x198 +1 x203 +1 x208 +1 x213 +1 x218 +1 x223 +1 x228 +1 x272 +1 x277 +1 x282 +1 x287 +1 x292 +1 x297 +1 x302 +1 x307 +1 x312 +1 x317 +1 x322 +1 x327 +1 x332 +1 x371 +1 x376 +1 x381 +1 x386 +1 x391 +1 x396 >= 1 ;
+1 x5 +1 x10 +1 x15 +1 x44 +1 x49 +1 x54 +1 x59 +1 x64 +1 x69 +1 x74 +1 x79 +1 x108 +1 x113 +1 x118 +1 x123 +1 x128 +1 x133 +1 x138 +1 x167 +1 x172 +1 x177 +1 x182 +1 x187 +1 x192 +1 x197 +1 x202 +1 x231 +1 x236 +1 x241 +1 x246 +1 x251 +1 x256 +1 x261 +1 x266 +1 x290 +1 x295 +1 x300 +1 x305 +1 x310 +1 x315 +1 x320 +1 x325 +1 x354 +1 x359 +1 x364 +1 x369 +1 x374 +1 x379 +1 x384 +1 x389 >= 1 ;
+1 x5 +1 x10 +1 x34 +1 x39 +1 x44 +1 x49 +1 x54 +1 x78 +1 x83 +1 x88 +1 x93 +1 x98 +1 x103 +1 x122 +1 x127 +1 x132 +1 x137 +1 x142 +1 x147 +1 x166 +1 x171 +1 x176 +1 x181 +1 x186 +1 x191 +1 x210 +1 x215 +1 x220 +1 x225 +1 x230 +1 x235 +1 x254 +1 x259 +1 x264 +1 x269 +1 x274 +1 x279 +1 x298 +1 x303 +1 x308 +1 x313 +1 x318 +1 x323 +1 x347 +1 x352 +1 x357 +1 x362 +1 x367 +1 x391 +1 x396 >= 1 ;
+1 x5 +1 x10 +1 x24 +1 x29 +1 x34 +1 x39 +1 x44 +1 x63 +1 x68 +1 x73 +1 x78 +1 x97 +1 x102 +1 x107 +1 x112 +1 x131 +1 x136 +1 x141 +1 x146 +1 x165 +1 x170 +1 x175 +1 x180 +1 x185 +1 x199 +1 x204 +1 x209 +1 x214 +1 x219 +1 x238 +1 x243 +1 x248 +1 x253 +1 x272 +1 x277 +1 x282 +1 x287 +1 x306 +1 x311 +1 x316 +1 x321 +1 x340 +1 x345 +1 x350 +1 x355 +1 x374 +1 x379 +1 x384 +1 x389 +1 x394 >= 1 ;
+1 x5 +1 x24 +1 x29 +1 x34 +1 x53 +1 x58 +1 x63 +1 x77 +1 x82 +1 x87 +1 x92 +1 x106 +1 x111 +1 x116 +1 x121 +1 x135 +1 x140 +1 x145 +1 x150 +1 x164 +1 x169 +1 x174 +1 x179 +1 x193 +1 x198 +1 x203 +1 x208 +1 x222 +1 x227 +1 x232 +1 x237 +1 x251 +1 x256 +1 x261 +1 x266 +1 x280 +1 x285 +1 x290 +1 x295 +1 x309 +1 x314 +1 x319 +1 x324 +1 x338 +1 x343 +1 x348 +1 x367 +1 x372 +1 x377 +1 x396 >= 1 ;
+1 x5 +1 x19 +1 x24 +1 x29 +1 x43 +1 x48 +1 x53 +1 x67 +1 x72 +1 x77 +1 x91 +1 x96 +1 x101 +1 x115 +1 x120 +1 x125 +1 x139 +1 x144 +1 x149 +1 x163 +1 x168 +1 x173 +1 x187 +1 x192 +1 x197 +1 x202 +1 x216 +1 x221 +1 x226 +1 x240 +1 x245 +1 x250 +1 x264 +1 x269 +1 x274 +1 x288 +1 x293 +1 x298 +1 x312 +1 x317 +1 x322 +1 x336 +1 x341 +1 x346 +1 x360 +1 x365 +1 x370 +1 x384 +1 x389 +1 x394 >= 1 ;
+1 x5 +1 x19 +1 x24 +1 x38 +1 x43 +1 x48 +1 x57 +1 x62 +1 x67 +1 x81 +1 x86 +1 x91 +1 x100 +1 x105 +1 x110 +1 x124 +1 x129 +1 x143 +1 x148 +1 x153 +1 x167 +1 x172 +1 x186 +1 x191 +1 x196 +1 x205 +1 x210 +1 x215 +1 x229 +1 x234 +1 x248 +1 x253 +1 x258 +1 x272 +1 x277 +1 x291 +1 x296 +1 x301 +1 x310 +1 x315 +1 x320 +1 x334 +1 x339 +1 x344 +1 x353 +1 x358 +1 x363 +1 x377 +1 x382 +1 x396 >= 1 ;
+1 x5 +1 x14 +1 x19 +1 x24 +1 x33 +1 x38 +1 x43 +1 x52 +1 x57 +1 x71 +1 x76 +1 x90 +1 x95 +1 x109 +1 x114 +1 x128 +1 x133 +1 x147 +1 x152 +1 x166 +1 x171 +1 x185 +1 x190 +1 x204 +1 x209 +1 x218 +1 x223 +1 x228 +1 x237 +1 x242 +1 x247 +1 x256 +1 x261 +1 x266 +1 x275 +1 x280 +1 x285 +1 x294 +1 x299 +1 x304 +1 x313 +1 x318 +1 x332 +1 x337 +1 x351 +1 x356 +1 x370 +1 x375 +1 x389 +1 x394 >= 1 ;
+1 x5 +1 x14 +1 x19 +1 x33 +1 x38 +1 x47 +1 x52 +1 x66 +1 x71 +1 x80 +1 x85 +1 x99 +1 x104 +1 x113 +1 x118 +1 x132 +1 x137 +1 x146 +1 x151 +1 x165 +1 x170 +1 x179 +1 x184 +1 x189 +1 x198 +1 x203 +1 x212 +1 x217 +1 x222 +1 x231 +1 x236 +1 x250 +1 x255 +1 x264 +1 x269 +1 x283 +1 x288 +1 x297 +1 x302 +1 x316 +1 x321 +1 x330 +1 x335 +1 x349 +1 x354 +1 x363 +1 x368 +1 x382 +1 x387 +1 x396 >= 1 ;
+1 x14 +1 x19 +1 x28 +1 x33 +1 x42 +1 x47 +1 x56 +1 x61 +1 x75 +1 x80 +1 x89 +1 x94 +1 x103 +1 x108 +1 x117 +1 x122 +1 x136 +1 x150 +1 x155 +1 x164 +1 x169 +1 x178 +1 x183 +1 x192 +1 x197 +1 x211 +1 x216 +1 x225 +1 x230 +1 x239 +1 x244 +1 x253 +1 x258 +1 x272 +1 x277 +1 x286 +1 x291 +1 x300 +1 x305 +1 x314 +1 x319 +1 x333 +1 x347 +1 x352 +1 x361 +1 x366 +1 x375 +1 x380 +1 x389 +1 x394 >= 1 ;
+1 x14 +1 x28 +1 x42 +1 x51 +1 x56 +1 x65 +1 x70 +1 x79 +1 x84 +1 x93 +1 x98 +1 x107 +1 x112 +1 x121 +1 x126 +1 x135 +1 x140 +1 x149 +1 x154 +1 x163 +1 x168 +1 x177 +1 x182 +1 x191 +1 x196 +1 x205 +1 x210 +1 x219 +1 x224 +1 x233 +1 x238 +1 x247 +1 x252 +1 x261 +1 x266 +1 x275 +1 x280 +1 x289 +1 x294 +1 x303 +1 x308 +1 x317 +1 x322 +1 x331 +1 x336 +1 x345 +1 x350 +1 x359 +1 x373 +1 x387 >= 1 ;
+1 x9 +1 x14 +1 x23 +1 x28 +1 x37 +1 x42 +1 x51 +1 x60 +1 x65 +1 x74 +1 x79 +1 x88 +1 x93 +1 x102 +1 x111 +1 x116 +1 x125 +1 x130 +1 x139 +1 x144 +1 x153 +1 x162 +1 x167 +1 x176 +1 x181 +1 x190 +1 x204 +1 x213 +1 x218 +1 x227 +1 x232 +1 x241 +1 x255 +1 x264 +1 x269 +1 x278 +1 x283 +1 x292 +1 x306 +1 x315 +1 x320 +1 x329 +1 x334 +1 x343 +1 x357 +1 x366 +1 x371 +1 x380 +1 x385 +1 x394 >= 1 ;
+1 x9 +1 x14 +1 x23 +1 x32 +1 x37 +1 x46 +1 x60 +1 x69 +1 x74 +1 x83 +1 x92 +1 x97 +1 x106 +1 x115 +1 x120 +1 x129 +1 x138 +1 x143 +1 x152 +1 x157 +1 x166 +1 x175 +1 x180 +1 x189 +1 x198 +1 x203 +1 x212 +1 x221 +1 x226 +1 x235 +1 x244 +1 x249 +1 x258 +1 x263 +1 x272 +1 x281 +1 x286 +1 x295 +1 x304 +1 x309 +1 x318 +1 x327 +1 x332 +1 x341 +1 x355 +1 x364 +1 x369 +1 x378 +1 x387 +1 x392 >= 1 ;
+1 x9 +1 x14 +1 x23 +1 x32 +1 x41 +1 x46 +1 x55 +1 x64 +1 x69 +1 x78 +1 x87 +1 x96 +1 x101 +1 x110 +1 x119 +1 x124 +1 x133 +1 x142 +1 x151 +1 x156 +1 x165 +1 x174 +1 x179 +1 x188 +1 x197 +1 x206 +1 x211 +1 x220 +1 x229 +1 x234 +1 x243 +1 x252 +1 x261 +1 x266 +1 x275 +1 x284 +1 x289 +1 x298 +1 x307 +1 x316 +1 x321 +1 x330 +1 x339 +1 x344 +1 x353 +1 x362 +1 x371 +1 x376 +1 x385 +1 x394 >= 1 ;
+1 x9 +1 x18 +1 x23 +1 x32 +1 x41 +1 x50 +1 x59 +1 x64 +1 x73 +1 x82 +1 x91 +1 x100 +1 x105 +1 x114 +1 x123 +1 x132 +1 x141 +1 x146 +1 x155 +1 x164 +1 x173 +1 x178 +1 x182 +1 x187 +1 x196 +1 x205 +1 x214 +1 x219 +1 x223 +1 x228 +1 x237 +1 x246 +1 x255 +1 x260 +1 x269 +1 x278 +1 x287 +1 x296 +1 x301 +1 x310 +1 x319 +1 x328 +1 x337 +1 x342 +1 x351 +1 x360 +1 x369 +1 x378 +1 x383 +1 x392 >= 1 ;
+1 x9 +1 x18 +1 x27 +1 x32 +1 x36 +1 x41 +1 x50 +1 x59 +1 x68 +1 x77 +1 x86 +1 x95 +1 x104 +1 x109 +1 x113 +1 x118 +1 x127 +1 x136 +1 x145 +1 x154 +1 x163 +1 x172 +1 x181 +1 x186 +1 x195 +1 x204 +1 x213 +1 x222 +1 x231 +1 x240 +1 x249 +1 x254 +1 x258 +1 x263 +1 x272 +1 x281 +1 x290 +1 x299 +1 x308 +1 x317 +1 x326 +1 x331 +1 x340 +1 x349 +1 x358 +1 x367 +1 x376 +1 x385 +1 x394 +1 x399 >= 1 ;
+1 x9 +1 x18 +1 x27 +1 x36 +1 x45 +1 x54 +1 x63 +1 x72 +1 x81 +1 x90 +1 x99 +1 x108 +1 x117 +1 x126 +1 x135 +1 x144 +1 x153 +1 x162 +1 x171 +1 x176 +1 x180 +1 x185 +1 x189 +1 x194 +1 x198 +1 x203 +1 x207 +1 x212 +1 x216 +1 x221 +1 x225 +1 x230 +1 x239 +1 x248 +1 x257 +1 x266 +1 x275 +1 x284 +1 x293 +1 x302 +1 x311 +1 x320 +1 x329 +1 x338 +1 x347 +1 x356 +1 x365 +1 x374 +1 x383 +1 x392 >= 1 ;
+1 x9 +1 x18 +1 x27 +1 x36 +1 x45 +1 x54 +1 x58 +1 x63 +1 x67 +1 x76 +1 x85 +1 x94 +1 x103 +1 x112 +1 x121 +1 x130 +1 x139 +1 x148 +1 x157 +1 x166 +1 x170 +1 x175 +1 x179 +1 x188 +1 x197 +1 x206 +1 x215 +1 x224 +1 x233 +1 x242 +1 x251 +1 x260 +1 x269 +1 x278 +1 x282 +1 x287 +1 x291 +1 x300 +1 x309 +1 x318 +1 x327 +1 x336 +1 x345 +1 x354 +1 x363 +1 x372 +1 x381 +1 x390 +1 x394 +1 x399 >= 1 ;
+1 x9 +1 x18 +1 x22 +1 x27 +1 x31 +1 x40 +1 x49 +1 x58 +1 x67 +1 x76 +1 x80 +1 x89 +1 x98 +1 x107 +1 x116 +1 x125 +1 x129 +1 x138 +1 x147 +1 x156 +1 x165 +1 x174 +1 x178 +1 x187 +1 x196 +1 x205 +1 x214 +1 x223 +1 x227 +1 x236 +1 x245 +1 x254 +1 x263 +1 x272 +1 x276 +1 x285 +1 x294 +1 x303 +1 x312 +1 x321 +1 x325 +1 x334 +1 x343 +1 x352 +1 x361 +1 x370 +1 x374 +1 x379 +1 x383 +1 x392 >= 1 ;
+1 x9 +1 x18 +1 x22 +1 x31 +1 x40 +1 x49 +1 x53 +1 x62 +1 x71 +1 x80 +1 x84 +1 x93 +1 x102 +1 x111 +1 x115 +1 x124 +1 x133 +1 x142 +1 x146 +1 x155 +1 x164 +1 x173 +1 x177 +1 x186 +1 x195 +1 x204 +1 x208 +1 x217 +1 x226 +1 x235 +1 x239 +1 x248 +1 x257 +1 x266 +1 x279 +1 x288 +1 x297 +1 x306 +1 x310 +1 x319 +1 x328 +1 x337 +1 x341 +1 x350 +1 x359 +1 x368 +1 x372 +1 x381 +1 x390 +1 x399 >= 1 ;
+1 x9 +1 x13 +1 x22 +1 x31 +1 x35 +1 x44 +1 x53 +1 x66 +1 x75 +1 x84 +1 x88 +1 x97 +1 x106 +1 x110 +1 x119 +1 x128 +1 x132 +1 x141 +1 x150 +1 x154 +1 x163 +1 x172 +1 x176 +1 x185 +1 x194 +1 x207 +1 x216 +1 x225 +1 x229 +1 x238 +1 x247 +1 x251 +1 x260 +1 x269 +1 x273 +1 x282 +1 x291 +1 x295 +1 x304 +1 x313 +1 x317 +1 x326 +1 x335 +1 x348 +1 x357 +1 x366 +1 x370 +1 x379 +1 x388 +1 x392 >= 1 ;
+1 x9 +1 x13 +1 x22 +1 x35 +1 x44 +1 x48 +1 x57 +1 x66 +1 x70 +1 x79 +1 x83 +1 x92 +1 x101 +1 x105 +1 x114 +1 x127 +1 x136 +1 x140 +1 x149 +1 x158 +1 x162 +1 x171 +1 x184 +1 x193 +1 x197 +1 x206 +1 x215 +1 x219 +1 x228 +1 x232 +1 x241 +1 x250 +1 x254 +1 x263 +1 x276 +1 x285 +1 x289 +1 x298 +1 x307 +1 x311 +1 x320 +1 x333 +1 x342 +1 x346 +1 x355 +1 x364 +1 x368 +1 x377 +1 x390 +1 x399 >= 1 ;
+1 x13 +1 x22 +1 x26 +1 x35 +1 x39 +1 x48 +1 x61 +1 x70 +1 x74 +1 x83 +1 x87 +1 x96 +1 x100 +1 x109 +1 x122 +1 x131 +1 x135 +1 x144 +1 x148 +1 x157 +1 x161 +1 x170 +1 x183 +1 x192 +1 x196 +1 x205 +1 x209 +1 x218 +1 x231 +1 x240 +1 x244 +1 x253 +1 x257 +1 x266 +1 x270 +1 x279 +1 x292 +1 x301 +1 x305 +1 x314 +1 x318 +1 x327 +1 x331 +1 x340 +1 x353 +1 x362 +1 x366 +1 x375 +1 x379 +1 x388 >= 1 ;
+1 x13 +1 x26 +1 x39 +1 x52 +1 x65 +1 x78 +1 x91 +1 x104 +1 x117 +1 x130 +1 x143 +1 x152 +1 x156 +1 x165 +1 x169 +1 x178 +1 x182 +1 x191 +1 x195 +1 x204 +1 x208 +1 x217 +1 x221 +1 x230 +1 x234 +1 x243 +1 x247 +1 x256 +1 x260 +1 x269 +1 x273 +1 x282 +1 x286 +1 x295 +1 x299 +1 x308 +1 x312 +1 x321 +1 x325 +1 x334 +1 x338 +1 x347 +1 x351 +1 x360 +1 x364 +1 x373 +1 x377 +1 x386 +1 x390 +1 x399 >= 1 ;
+1 x13 +1 x17 +1 x26 +1 x30 +1 x39 +1 x43 +1 x52 +1 x56 +1 x69 +1 x82 +1 x86 +1 x95 +1 x99 +1 x108 +1 x112 +1 x121 +1 x125 +1 x138 +1 x151 +1 x155 +1 x164 +1 x168 +1 x177 +1 x181 +1 x194 +1 x207 +1 x220 +1 x224 +1 x233 +1 x237 +1 x246 +1 x250 +1 x263 +1 x276 +1 x280 +1 x289 +1 x293 +1 x302 +1 x306 +1 x315 +1 x319 +1 x332 +1 x345 +1 x349 +1 x358 +1 x362 +1 x371 +1 x375 +1 x384 +1 x388 >= 1 ;
+1 x13 +1 x17 +1 x26 +1 x30 +1 x43 +1 x47 +1 x56 +1 x60 +1 x73 +1 x77 +1 x86 +1 x90 +1 x103 +1 x107 +1 x116 +1 x120 +1 x133 +1 x137 +1 x146 +1 x150 +1 x163 +1 x167 +1 x176 +1 x180 +1 x193 +1 x206 +1 x210 +1 x223 +1 x236 +1 x240 +1 x249 +1 x253 +1 x266 +1 x270 +1 x279 +1 x283 +1 x296 +1 x300 +1 x309 +1 x313 +1 x326 +1 x330 +1 x339 +1 x343 +1 x356 +1 x360 +1 x369 +1 x373 +1 x386 +1 x399 >= 1 ;
+1 x4 +1 x13 +1 x17 +1 x30 +1 x34 +1 x47 +1 x51 +1 x64 +1 x68 +1 x77 +1 x81 +1 x94 +1 x98 +1 x111 +1 x115 +1 x128 +1 x132 +1 x141 +1 x145 +1 x158 +1 x162 +1 x175 +1 x179 +1 x192 +1 x196 +1 x205 +1 x209 +1 x222 +1 x226 +1 x239 +1 x243 +1 x256 +1 x260 +1 x269 +1 x273 +1 x286 +1 x290 +1 x303 +1 x307 +1 x320 +1 x324 +1 x333 +1 x337 +1 x350 +1 x354 +1 x367 +1 x371 +1 x384 +1 x388 +1 x397 >= 1 ;
+1 x4 +1 x17 +1 x21 +1 x34 +1 x38 +1 x51 +1 x55 +1 x68 +1 x72 +1 x85 +1 x89 +1 x102 +1 x106 +1 x119 +1 x123 +1 x136 +1 x140 +1 x153 +1 x157 +1 x161 +1 x170 +1 x174 +1 x178 +1 x191 +1 x195 +1 x208 +1 x212 +1 x225 +1 x229 +1 x242 +1 x246 +1 x259 +1 x263 +1 x276 +1 x280 +1 x293 +1 x297 +1 x310 +1 x314 +1 x318 +1 x327 +1 x331 +1 x335 +1 x348 +1 x352 +1 x365 +1 x369 +1 x382 +1 x386 +1 x399 >= 1 ;
+1 x4 +1 x17 +1 x21 +1 x34 +1 x38 +1 x42 +1 x55 +1 x59 +1 x72 +1 x76 +1 x80 +1 x93 +1 x97 +1 x110 +1 x114 +1 x118 +1 x131 +1 x135 +1 x148 +1 x152 +1 x156 +1 x169 +1 x173 +1 x190 +1 x194 +1 x207 +1 x211 +1 x228 +1 x232 +1 x245 +1 x249 +1 x253 +1 x266 +1 x270 +1 x283 +1 x287 +1 x291 +1 x304 +1 x308 +1 x321 +1 x325 +1 x329 +1 x342 +1 x346 +1 x359 +1 x363 +1 x367 +1 x380 +1 x384 +1 x397 >= 1 ;
+1 x4 +1 x17 +1 x21 +1 x25 +1 x38 +1 x42 +1 x46 +1 x59 +1 x63 +1 x67 +1 x80 +1 x84 +1 x88 +1 x101 +1 x105 +1 x109 +1 x122 +1 x126 +1 x130 +1 x143 +1 x147 +1 x151 +1 x164 +1 x168 +1 x172 +1 x185 +1 x189 +1 x193 +1 x206 +1 x210 +1 x214 +1 x227 +1 x231 +1 x235 +1 x248 +1 x252 +1 x256 +1 x273 +1 x277 +1 x294 +1 x298 +1 x315 +1 x319 +1 x336 +1 x340 +1 x357 +1 x361 +1 x378 +1 x382 +1 x399 >= 1 ;
+1 x4 +1 x21 +1 x25 +1 x29 +1 x42 +1 x46 +1 x50 +1 x67 +1 x71 +1 x75 +1 x92 +1 x96 +1 x100 +1 x113 +1 x117 +1 x121 +1 x138 +1 x142 +1 x146 +1 x163 +1 x167 +1 x171 +1 x184 +1 x188 +1 x192 +1 x209 +1 x213 +1 x217 +1 x230 +1 x234 +1 x238 +1 x255 +1 x259 +1 x263 +1 x280 +1 x284 +1 x288 +1 x301 +1 x305 +1 x309 +1 x326 +1 x330 +1 x334 +1 x351 +1 x355 +1 x359 +1 x372 +1 x376 +1 x380 +1 x397 >= 1 ;
+1 x4 +1 x21 +1 x25 +1 x29 +1 x33 +1 x50 +1 x54 +1 x58 +1 x75 +1 x79 +1 x83 +1 x104 +1 x108 +1 x112 +1 x129 +1 x133 +1 x137 +1 x154 +1 x158 +1 x162 +1 x166 +1 x183 +1 x187 +1 x191 +1 x208 +1 x212 +1 x216 +1 x220 +1 x237 +1 x241 +1 x245 +1 x262 +1 x266 +1 x270 +1 x274 +1 x291 +1 x295 +1 x299 +1 x316 +1 x320 +1 x324 +1 x341 +1 x345 +1 x349 +1 x353 +1 x370 +1 x374 +1 x378 +1 x395 +1 x399 >= 1 ;
+1 x4 +1 x25 +1 x29 +1 x33 +1 x37 +1 x54 +1 x58 +1 x62 +1 x66 +1 x87 +1 x91 +1 x95 +1 x99 +1 x116 +1 x120 +1 x124 +1 x128 +1 x149 +1 x153 +1 x157 +1 x161 +1 x178 +1 x182 +1 x186 +1 x190 +1 x211 +1 x215 +1 x219 +1 x223 +1 x240 +1 x244 +1 x248 +1 x252 +1 x273 +1 x277 +1 x281 +1 x285 +1 x302 +1 x306 +1 x310 +1 x314 +1 x335 +1 x339 +1 x343 +1 x347 +1 x364 +1 x368 +1 x372 +1 x376 +1 x397 >= 1 ;
+1 x4 +1 x8 +1 x29 +1 x33 +1 x37 +1 x41 +1 x45 +1 x66 +1 x70 +1 x74 +1 x78 +1 x82 +1 x103 +1 x107 +1 x111 +1 x115 +1 x140 +1 x144 +1 x148 +1 x152 +1 x177 +1 x181 +1 x185 +1 x189 +1 x210 +1 x214 +1 x218 +1 x222 +1 x226 +1 x247 +1 x251 +1 x255 +1 x259 +1 x263 +1 x284 +1 x288 +1 x292 +1 x296 +1 x300 +1 x321 +1 x325 +1 x329 +1 x333 +1 x337 +1 x358 +1 x362 +1 x366 +1 x370 +1 x395 +1 x399 >= 1 ;
+1 x4 +1 x8 +1 x37 +1 x41 +1 x45 +1 x49 +1 x53 +1 x78 +1 x82 +1 x86 +1 x90 +1 x94 +1 x98 +1 x123 +1 x127 +1 x131 +1 x135 +1 x139 +1 x143 +1 x168 +1 x172 +1 x176 +1 x180 +1 x184 +1 x188 +1 x213 +1 x217 +1 x221 +1 x225 +1 x229 +1 x233 +1 x258 +1 x262 +1 x266 +1 x270 +1 x274 +1 x278 +1 x303 +1 x307 +1 x311 +1 x315 +1 x319 +1 x323 +1 x348 +1 x352 +1 x356 +1 x360 +1 x364 +1 x393 +1 x397 >= 1 ;
+1 x4 +1 x8 +1 x12 +1 x45 +1 x49 +1 x53 +1 x57 +1 x61 +1 x65 +1 x69 +1 x102 +1 x106 +1 x110 +1 x114 +1 x118 +1 x122 +1 x126 +1 x159 +1 x163 +1 x167 +1 x171 +1 x175 +1 x179 +1 x183 +1 x216 +1 x220 +1 x224 +1 x228 +1 x232 +1 x236 +1 x240 +1 x273 +1 x277 +1 x281 +1 x285 +1 x289 +1 x293 +1 x297 +1 x330 +1 x334 +1 x338 +1 x342 +1 x346 +1 x350 +1 x354 +1 x358 +1 x387 +1 x391 +1 x395 +1 x399 >= 1 ;
+1 x4 +1 x8 +1 x12 +1 x16 +1 x20 +1 x61 +1 x65 +1 x69 +1 x73 +1 x77 +1 x81 +1 x85 +1 x89 +1 x93 +1 x97 +1 x142 +1 x146 +1 x150 +1 x154 +1 x158 +1 x162 +1 x166 +1 x170 +1 x174 +1 x178 +1 x223 +1 x227 +1 x231 +1 x235 +1 x239 +1 x243 +1 x247 +1 x251 +1 x255 +1 x259 +1 x304 +1 x308 +1 x312 +1 x316 +1 x320 +1 x324 +1 x328 +1 x332 +1 x336 +1 x340 +1 x381 +1 x385 +1 x389 +1 x393 +1 x397 >= 1 ;
+1 x4 +1 x8 +1 x12 +1 x16 +1 x20 +1 x24 +1 x28 +1 x32 +1 x101 +1 x105 +1 x109 +1 x113 +1 x117 +1 x121 +1 x125 +1 x129 +1 x133 +1 x137 +1 x141 +1 x145 +1 x149 +1 x153 +1 x157 +1 x161 +1 x165 +1 x234 +1 x238 +1 x242 +1 x246 +1 x250 +1 x254 +1 x258 +1 x262 +1 x266 +1 x270 +1 x274 +1 x278 +1 x282 +1 x286 +1 x290 +1 x294 +1 x298 +1 x371 +1 x375 +1 x379 +1 x383 +1 x387 +1 x391 +1 x395 +1 x399 >= 1 ;
+1 x4 +1 x8 +1 x12 +1 x16 +1 x20 +1 x24 +1 x28 +1 x32 +1 x36 +1 x40 +1 x44 +1 x48 +1 x52 +1 x56 +1 x60 +1 x64 +1 x68 +1 x72 +1 x76 +1 x80 +1 x84 +1 x88 +1 x92 +1 x96 +1 x100 +1 x301 +1 x305 +1 x309 +1 x313 +1 x317 +1 x321 +1 x325 +1 x329 +1 x333 +1 x337 +1 x341 +1 x345 +1 x349 +1 x353 +1 x357 +1 x361 +1 x365 +1 x369 +1 x373 +1 x377 +1 x381 +1 x385 +1 x389 +1 x393 +1 x397 >= 1 ;
+1 x4 +1 x8 +1 x12 +1 x16 +1 x20 +1 x24 +1 x28 +1 x32 +1 x36 +1 x40 +1 x44 +1 x48 +1 x52 +1 x56 +1 x60 +1 x64 +1 x68 +1 x72 +1 x76 +1 x80 +1 x84 +1 x88 +1 x92 +1 x96 +1 x100 +1 x303 +1 x307 +1 x311 +1 x315 +1 x319 +1 x323 +1 x327 +1 x331 +1 x335 +1 x339 +1 x343 +1 x347 +1 x351 +1 x355 +1 x359 +1 x363 +1 x367 +1 x371 +1 x375 +1 x379 +1 x383 +1 x387 +1 x391 +1 x395 +1 x399 >= 1 ;
+1 x4 +1 x8 +1 x12 +1 x16 +1 x20 +1 x24 +1 x28 +1 x32 +1 x103 +1 x107 +1 x111 +1 x115 +1 x119 +1 x123 +1 x127 +1 x131 +1 x135 +1 x139 +1 x143 +1 x147 +1 x151 +1 x155 +1 x159 +1 x163 +1 x167 +1 x234 +1 x238 +1 x242 +1 x246 +1 x250 +1 x254 +1 x258 +1 x262 +1 x266 +1 x270 +1 x274 +1 x278 +1 x282 +1 x286 +1 x290 +1 x294 +1 x298 +1 x369 +1 x373 +1 x377 +1 x381 +1 x385 +1 x389 +1 x393 +1 x397 >= 1 ;
+1 x4 +1 x8 +1 x12 +1 x16 +1 x20 +1 x63 +1 x67 +1 x71 +1 x75 +1 x79 +1 x83 +1 x87 +1 x91 +1 x95 +1 x99 +1 x142 +1 x146 +1 x150 +1 x154 +1 x158 +1 x162 +1 x166 +1 x170 +1 x174 +1 x178 +1 x221 +1 x225 +1 x229 +1 x233 +1 x237 +1 x241 +1 x245 +1 x249 +1 x253 +1 x257 +1 x304 +1 x308 +1 x312 +1 x316 +1 x320 +1 x324 +1 x328 +1 x332 +1 x336 +1 x340 +1 x383 +1 x387 +1 x391 +1 x395 +1 x399 >= 1 ;
+1 x4 +1 x8 +1 x12 +1 x43 +1 x47 +1 x51 +1 x55 +1 x59 +1 x63 +1 x67 +1 x71 +1 x102 +1 x106 +1 x110 +1 x114 +1 x118 +1 x122 +1 x126 +1 x161 +1 x165 +1 x169 +1 x173 +1 x177 +1 x181 +1 x185 +1 x216 +1 x220 +1 x224 +1 x228 +1 x232 +1 x236 +1 x240 +1 x275 +1 x279 +1 x283 +1 x287 +1 x291 +1 x295 +1 x299 +1 x330 +1 x334 +1 x338 +1 x342 +1 x346 +1 x350 +1 x354 +1 x358 +1 x389 +1 x393 +1 x397 >= 1 ;
+1 x4 +1 x8 +1 x35 +1 x39 +1 x43 +1 x47 +1 x51 +1 x55 +1 x78 +1 x82 +1 x86 +1 x90 +1 x94 +1 x98 +1 x125 +1 x129 +1 x133 +1 x137 +1 x141 +1 x168 +1 x172 +1 x176 +1 x180 +1 x184 +1 x188 +1 x215 +1 x219 +1 x223 +1 x227 +1 x231 +1 x258 +1 x262 +1 x266 +1 x270 +1 x274 +1 x278 +1 x301 +1 x305 +1 x309 +1 x313 +1 x317 +1 x321 +1 x348 +1 x352 +1 x356 +1 x360 +1 x364 +1 x391 +1 x395 +1 x399 >= 1 ;
+1 x4 +1 x8 +1 x31 +1 x35 +1 x39 +1 x43 +1 x66 +1 x70 +1 x74 +1 x78 +1 x82 +1 x101 +1 x105 +1 x109 +1 x113 +1 x117 +1 x140 +1 x144 +1 x148 +1 x152 +1 x175 +1 x179 +1 x183 +1 x187 +1 x191 +1 x210 +1 x214 +1 x218 +1 x222 +1 x226 +1 x249 +1 x253 +1 x257 +1 x261 +1 x284 +1 x288 +1 x292 +1 x296 +1 x300 +1 x319 +1 x323 +1 x327 +1 x331 +1 x335 +1 x358 +1 x362 +1 x366 +1 x370 +1 x393 +1 x397 >= 1 ;
+1 x4 +1 x27 +1 x31 +1 x35 +1 x54 +1 x58 +1 x62 +1 x66 +1 x85 +1 x89 +1 x93 +1 x97 +1 x116 +1 x120 +1 x124 +1 x128 +1 x147 +1 x151 +1 x155 +1 x159 +1 x178 +1 x182 +1 x186 +1 x190 +1 x209 +1 x213 +1 x217 +1 x221 +1 x240 +1 x244 +1 x248 +1 x252 +1 x271 +1 x275 +1 x279 +1 x283 +1 x302 +1 x306 +1 x310 +1 x314 +1 x333 +1 x337 +1 x341 +1 x345 +1 x364 +1 x368 +1 x372 +1 x376 +1 x395 +1 x399 >= 1 ;
+1 x4 +1 x23 +1 x27 +1 x31 +1 x50 +1 x54 +1 x58 +1 x77 +1 x81 +1 x85 +1 x104 +1 x108 +1 x112 +1 x127 +1 x131 +1 x135 +1 x139 +1 x154 +1 x158 +1 x162 +1 x166 +1 x181 +1 x185 +1 x189 +1 x193 +1 x208 +1 x212 +1 x216 +1 x220 +1 x235 +1 x239 +1 x243 +1 x247 +1 x262 +1 x266 +1 x270 +1 x274 +1 x289 +1 x293 +1 x297 +1 x316 +1 x320 +1 x324 +1 x343 +1 x347 +1 x351 +1 x370 +1 x374 +1 x378 +1 x397 >= 1 ;
+1 x4 +1 x19 +1 x23 +1 x27 +1 x42 +1 x46 +1 x50 +1 x65 +1 x69 +1 x73 +1 x92 +1 x96 +1 x100 +1 x115 +1 x119 +1 x123 +1 x138 +1 x142 +1 x146 +1 x161 +1 x165 +1 x169 +1 x184 +1 x188 +1 x192 +1 x207 +1 x211 +1 x215 +1 x230 +1 x234 +1 x238 +1 x257 +1 x261 +1 x265 +1 x280 +1 x284 +1 x288 +1 x303 +1 x307 +1 x311 +1 x326 +1 x330 +1 x334 +1 x349 +1 x353 +1 x357 +1 x372 +1 x376 +1 x380 +1 x399 >= 1 ;
+1 x4 +1 x19 +1 x23 +1 x38 +1 x42 +1 x46 +1 x61 +1 x65 +1 x80 +1 x84 +1 x88 +1 x103 +1 x107 +1 x122 +1 x126 +1 x130 +1 x145 +1 x149 +1 x153 +1 x164 +1 x168 +1 x172 +1 x187 +1 x191 +1 x195 +1 x206 +1 x210 +1 x214 +1 x229 +1 x233 +1 x237 +1 x248 +1 x252 +1 x256 +1 x271 +1 x275 +1 x279 +1 x294 +1 x298 +1 x313 +1 x317 +1 x321 +1 x336 +1 x340 +1 x355 +1 x359 +1 x363 +1 x378 +1 x382 +1 x397 >= 1 ;
+1 x4 +1 x15 +1 x19 +1 x23 +1 x34 +1 x38 +1 x42 +1 x53 +1 x57 +1 x61 +1 x72 +1 x76 +1 x80 +1 x91 +1 x95 +1 x99 +1 x110 +1 x114 +1 x118 +1 x129 +1 x133 +1 x137 +1 x148 +1 x152 +1 x156 +1 x171 +1 x175 +1 x190 +1 x194 +1 x209 +1 x213 +1 x228 +1 x232 +1 x247 +1 x251 +1 x266 +1 x270 +1 x285 +1 x289 +1 x304 +1 x308 +1 x323 +1 x327 +1 x342 +1 x346 +1 x361 +1 x365 +1 x380 +1 x384 +1 x399 >= 1 ;
+1 x4 +1 x15 +1 x19 +1 x34 +1 x38 +1 x49 +1 x53 +1 x68 +1 x72 +1 x83 +1 x87 +1 x91 +1 x102 +1 x106 +1 x121 +1 x125 +1 x136 +1 x140 +1 x155 +1 x159 +1 x170 +1 x174 +1 x178 +1 x189 +1 x193 +1 x208 +1 x212 +1 x223 +1 x227 +1 x231 +1 x242 +1 x246 +1 x261 +1 x265 +1 x276 +1 x280 +1 x295 +1 x299 +1 x310 +1 x314 +1 x318 +1 x329 +1 x333 +1 x348 +1 x352 +1 x363 +1 x367 +1 x382 +1 x386 +1 x397 >= 1 ;
+1 x4 +1 x15 +1 x19 +1 x30 +1 x34 +1 x45 +1 x49 +1 x64 +1 x68 +1 x79 +1 x83 +1 x94 +1 x98 +1 x109 +1 x113 +1 x128 +1 x132 +1 x143 +1 x147 +1 x158 +1 x162 +1 x173 +1 x177 +1 x192 +1 x196 +1 x207 +1 x211 +1 x222 +1 x226 +1 x237 +1 x241 +1 x256 +1 x260 +1 x271 +1 x275 +1 x286 +1 x290 +1 x301 +1 x305 +1 x320 +1 x324 +1 x335 +1 x339 +1 x350 +1 x354 +1 x365 +1 x369 +1 x384 +1 x388 +1 x399 >= 1 ;
+1 x15 +1 x26 +1 x30 +1 x41 +1 x45 +1 x56 +1 x60 +1 x71 +1 x75 +1 x86 +1 x90 +1 x101 +1 x105 +1 x116 +1 x120 +1 x131 +1 x135 +1 x146 +1 x150 +1 x161 +1 x165 +1 x176 +1 x180 +1 x191 +1 x195 +1 x206 +1 x210 +1 x221 +1 x225 +1 x236 +1 x240 +1 x251 +1 x255 +1 x266 +1 x270 +1 x281 +1 x285 +1 x296 +1 x300 +1 x311 +1 x315 +1 x326 +1 x330 +1 x341 +1 x345 +1 x356 +1 x360 +1 x371 +1 x375 +1 x386 >= 1 ;
+1 x11 +1 x15 +1 x26 +1 x30 +1 x41 +1 x52 +1 x56 +1 x67 +1 x71 +1 x82 +1 x86 +1 x97 +1 x108 +1 x112 +1 x123 +1 x127 +1 x138 +1 x149 +1 x153 +1 x164 +1 x168 +1 x179 +1 x183 +1 x194 +1 x205 +1 x209 +1 x220 +1 x224 +1 x235 +1 x246 +1 x250 +1 x261 +1 x265 +1 x276 +1 x280 +1 x287 +1 x291 +1 x302 +1 x306 +1 x317 +1 x321 +1 x332 +1 x343 +1 x347 +1 x358 +1 x362 +1 x373 +1 x384 +1 x388 +1 x399 >= 1 ;
+1 x11 +1 x15 +1 x26 +1 x37 +1 x41 +1 x52 +1 x63 +1 x67 +1 x78 +1 x89 +1 x93 +1 x104 +1 x115 +1 x119 +1 x130 +1 x141 +1 x145 +1 x152 +1 x156 +1 x167 +1 x171 +1 x178 +1 x182 +1 x193 +1 x197 +1 x204 +1 x208 +1 x219 +1 x223 +1 x230 +1 x234 +1 x245 +1 x249 +1 x256 +1 x260 +1 x271 +1 x282 +1 x286 +1 x297 +1 x308 +1 x312 +1 x323 +1 x334 +1 x338 +1 x349 +1 x360 +1 x364 +1 x375 +1 x386 +1 x390 >= 1 ;
+1 x11 +1 x15 +1 x22 +1 x26 +1 x37 +1 x48 +1 x59 +1 x63 +1 x70 +1 x74 +1 x85 +1 x96 +1 x100 +1 x107 +1 x111 +1 x122 +1 x133 +1 x144 +1 x148 +1 x155 +1 x159 +1 x170 +1 x181 +1 x185 +1 x192 +1 x196 +1 x207 +1 x218 +1 x229 +1 x233 +1 x240 +1 x244 +1 x255 +1 x266 +1 x270 +1 x277 +1 x281 +1 x292 +1 x303 +1 x314 +1 x318 +1 x329 +1 x340 +1 x351 +1 x355 +1 x362 +1 x366 +1 x377 +1 x388 +1 x399 >= 1 ;
+1 x11 +1 x22 +1 x33 +1 x37 +1 x44 +1 x48 +1 x55 +1 x59 +1 x66 +1 x70 +1 x81 +1 x92 +1 x103 +1 x114 +1 x125 +1 x136 +1 x140 +1 x147 +1 x151 +1 x158 +1 x162 +1 x169 +1 x173 +1 x184 +1 x195 +1 x206 +1 x217 +1 x228 +1 x232 +1 x239 +1 x243 +1 x250 +1 x254 +1 x261 +1 x265 +1 x276 +1 x287 +1 x298 +1 x309 +1 x320 +1 x331 +1 x335 +1 x342 +1 x346 +1 x353 +1 x357 +1 x364 +1 x368 +1 x379 +1 x390 >= 1 ;
+1 x11 +1 x22 +1 x33 +1 x44 +1 x55 +1 x66 +1 x77 +1 x84 +1 x88 +1 x95 +1 x99 +1 x106 +1 x110 +1 x117 +1 x121 +1 x128 +1 x132 +1 x139 +1 x143 +1 x150 +1 x154 +1 x161 +1 x165 +1 x172 +1 x176 +1 x183 +1 x194 +1 x205 +1 x216 +1 x227 +1 x238 +1 x249 +1 x260 +1 x271 +1 x282 +1 x293 +1 x304 +1 x315 +1 x326 +1 x337 +1 x348 +1 x355 +1 x359 +1 x366 +1 x370 +1 x377 +1 x381 +1 x388 +1 x392 +1 x399 >= 1 ;
+1 x11 +1 x18 +1 x22 +1 x29 +1 x33 +1 x40 +1 x51 +1 x62 +1 x73 +1 x80 +1 x84 +1 x91 +1 x95 +1 x102 +1 x113 +1 x124 +1 x135 +1 x142 +1 x146 +1 x153 +1 x164 +1 x175 +1 x186 +1 x193 +1 x197 +1 x204 +1 x208 +1 x215 +1 x226 +1 x237 +1 x248 +1 x255 +1 x259 +1 x266 +1 x277 +1 x288 +1 x299 +1 x306 +1 x310 +1 x317 +1 x321 +1 x328 +1 x339 +1 x350 +1 x361 +1 x368 +1 x372 +1 x379 +1 x383 +1 x390 >= 1 ;
+1 x11 +1 x18 +1 x22 +1 x29 +1 x40 +1 x47 +1 x51 +1 x58 +1 x69 +1 x76 +1 x80 +1 x87 +1 x98 +1 x109 +1 x116 +1 x127 +1 x138 +1 x145 +1 x149 +1 x156 +1 x167 +1 x174 +1 x178 +1 x185 +1 x196 +1 x203 +1 x207 +1 x214 +1 x225 +1 x236 +1 x243 +1 x254 +1 x265 +1 x272 +1 x276 +1 x283 +1 x294 +1 x301 +1 x305 +1 x312 +1 x323 +1 x334 +1 x341 +1 x352 +1 x363 +1 x370 +1 x374 +1 x381 +1 x392 +1 x399 >= 1 ;
+1 x7 +1 x11 +1 x18 +1 x29 +1 x36 +1 x47 +1 x54 +1 x58 +1 x65 +1 x76 +1 x83 +1 x94 +1 x101 +1 x112 +1 x119 +1 x123 +1 x130 +1 x141 +1 x148 +1 x159 +1 x166 +1 x170 +1 x177 +1 x188 +1 x195 +1 x206 +1 x213 +1 x224 +1 x231 +1 x235 +1 x242 +1 x253 +1 x260 +1 x271 +1 x278 +1 x282 +1 x289 +1 x300 +1 x307 +1 x318 +1 x325 +1 x336 +1 x343 +1 x347 +1 x354 +1 x365 +1 x372 +1 x383 +1 x390 +1 x394 >= 1 ;
+1 x7 +1 x11 +1 x18 +1 x25 +1 x36 +1 x43 +1 x54 +1 x61 +1 x72 +1 x79 +1 x90 +1 x97 +1 x108 +1 x115 +1 x126 +1 x133 +1 x144 +1 x151 +1 x162 +1 x169 +1 x176 +1 x180 +1 x187 +1 x194 +1 x198 +1 x205 +1 x212 +1 x216 +1 x223 +1 x230 +1 x241 +1 x248 +1 x259 +1 x266 +1 x277 +1 x284 +1 x295 +1 x302 +1 x313 +1 x320 +1 x331 +1 x338 +1 x349 +1 x356 +1 x367 +1 x374 +1 x381 +1 x385 +1 x392 +1 x399 >= 1 ;
+1 x7 +1 x18 +1 x25 +1 x32 +1 x36 +1 x43 +1 x50 +1 x61 +1 x68 +1 x75 +1 x86 +1 x93 +1 x104 +1 x111 +1 x118 +1 x129 +1 x136 +1 x143 +1 x147 +1 x154 +1 x161 +1 x172 +1 x179 +1 x186 +1 x197 +1 x204 +1 x215 +1 x222 +1 x229 +1 x240 +1 x247 +1 x254 +1 x258 +1 x265 +1 x272 +1 x283 +1 x290 +1 x297 +1 x308 +1 x315 +1 x326 +1 x333 +1 x340 +1 x351 +1 x358 +1 x365 +1 x369 +1 x376 +1 x383 +1 x394 >= 1 ;
+1 x7 +1 x18 +1 x25 +1 x32 +1 x39 +1 x50 +1 x57 +1 x64 +1 x75 +1 x82 +1 x89 +1 x100 +1 x107 +1 x114 +1 x121 +1 x132 +1 x139 +1 x146 +1 x157 +1 x164 +1 x171 +1 x178 +1 x182 +1 x189 +1 x196 +1 x203 +1 x214 +1 x221 +1 x228 +1 x239 +1 x246 +1 x253 +1 x260 +1 x271 +1 x278 +1 x285 +1 x296 +1 x303 +1 x310 +1 x321 +1 x328 +1 x335 +1 x342 +1 x353 +1 x360 +1 x367 +1 x378 +1 x385 +1 x392 +1 x399 >= 1 ;
+1 x7 +1 x14 +1 x25 +1 x32 +1 x39 +1 x46 +1 x57 +1 x64 +1 x71 +1 x78 +1 x85 +1 x96 +1 x103 +1 x110 +1 x117 +1 x124 +1 x135 +1 x142 +1 x149 +1 x156 +1 x167 +1 x174 +1 x181 +1 x188 +1 x195 +1 x206 +1 x213 +1 x220 +1 x227 +1 x234 +1 x245 +1 x252 +1 x259 +1 x266 +1 x277 +1 x284 +1 x291 +1 x298 +1 x305 +1 x316 +1 x323 +1 x330 +1 x337 +1 x344 +1 x355 +1 x362 +1 x369 +1 x376 +1 x387 +1 x394 >= 1 ;
+1 x7 +1 x14 +1 x21 +1 x32 +1 x39 +1 x46 +1 x53 +1 x60 +1 x67 +1 x74 +1 x85 +1 x92 +1 x99 +1 x106 +1 x113 +1 x120 +1 x127 +1 x138 +1 x145 +1 x152 +1 x159 +1 x166 +1 x173 +1 x180 +1 x191 +1 x198 +1 x205 +1 x212 +1 x219 +1 x226 +1 x233 +1 x244 +1 x251 +1 x258 +1 x265 +1 x272 +1 x279 +1 x286 +1 x304 +1 x311 +1 x318 +1 x325 +1 x332 +1 x339 +1 x357 +1 x364 +1 x371 +1 x378 +1 x385 +1 x392 >= 1 ;
+1 x7 +1 x14 +1 x21 +1 x28 +1 x35 +1 x42 +1 x60 +1 x67 +1 x74 +1 x81 +1 x88 +1 x95 +1 x102 +1 x109 +1 x116 +1 x123 +1 x130 +1 x137 +1 x144 +1 x162 +1 x169 +1 x176 +1 x183 +1 x190 +1 x197 +1 x204 +1 x211 +1 x218 +1 x225 +1 x232 +1 x239 +1 x257 +1 x264 +1 x271 +1 x278 +1 x285 +1 x292 +1 x299 +1 x306 +1 x313 +1 x320 +1 x327 +1 x334 +1 x341 +1 x359 +1 x366 +1 x373 +1 x380 +1 x387 +1 x394 >= 1 ;
+1 x7 +1 x14 +1 x21 +1 x28 +1 x35 +1 x42 +1 x49 +1 x56 +1 x63 +1 x70 +1 x77 +1 x84 +1 x91 +1 x98 +1 x105 +1 x112 +1 x119 +1 x126 +1 x133 +1 x140 +1 x147 +1 x154 +1 x161 +1 x168 +1 x175 +1 x182 +1 x189 +1 x196 +1 x203 +1 x210 +1 x217 +1 x224 +1 x231 +1 x238 +1 x245 +1 x252 +1 x259 +1 x266 +1 x273 +1 x280 +1 x287 +1 x294 +1 x301 +1 x308 +1 x315 +1 x322 +1 x329 +1 x336 +1 x343 +1 x350 >= 1 ;
+1 x7 +1 x14 +1 x21 +1 x28 +1 x35 +1 x42 +1 x49 +1 x56 +1 x80 +1 x87 +1 x94 +1 x101 +1 x108 +1 x115 +1 x122 +1 x129 +1 x136 +1 x143 +1 x150 +1 x157 +1 x164 +1 x171 +1 x178 +1 x185 +1 x192 +1 x209 +1 x216 +1 x223 +1 x230 +1 x237 +1 x244 +1 x251 +1 x258 +1 x265 +1 x272 +1 x279 +1 x286 +1 x293 +1 x300 +1 x307 +1 x314 +1 x321 +1 x345 +1 x352 +1 x359 +1 x366 +1 x373 +1 x380 +1 x387 +1 x394 >= 1 ;
+1 x7 +1 x14 +1 x21 +1 x38 +1 x45 +1 x52 +1 x59 +1 x66 +1 x73 +1 x80 +1 x87 +1 x97 +1 x104 +1 x111 +1 x118 +1 x125 +1 x132 +1 x139 +1 x146 +1 x163 +1 x170 +1 x177 +1 x184 +1 x191 +1 x198 +1 x205 +1 x212 +1 x222 +1 x229 +1 x236 +1 x243 +1 x250 +1 x257 +1 x264 +1 x271 +1 x288 +1 x295 +1 x302 +1 x309 +1 x316 +1 x323 +1 x330 +1 x347 +1 x354 +1 x361 +1 x368 +1 x375 +1 x382 +1 x389 +1 x396 >= 1 ;
+1 x7 +1 x14 +1 x24 +1 x31 +1 x38 +1 x45 +1 x52 +1 x69 +1 x76 +1 x83 +1 x90 +1 x97 +1 x107 +1 x114 +1 x121 +1 x128 +1 x135 +1 x145 +1 x152 +1 x159 +1 x166 +1 x173 +1 x183 +1 x190 +1 x197 +1 x204 +1 x211 +1 x218 +1 x228 +1 x235 +1 x242 +1 x249 +1 x256 +1 x266 +1 x273 +1 x280 +1 x287 +1 x294 +1 x304 +1 x311 +1 x318 +1 x325 +1 x332 +1 x349 +1 x356 +1 x363 +1 x370 +1 x377 +1 x387 +1 x394 >= 1 ;
+1 x7 +1 x17 +1 x24 +1 x31 +1 x38 +1 x48 +1 x55 +1 x62 +1 x69 +1 x79 +1 x86 +1 x93 +1 x100 +1 x110 +1 x117 +1 x124 +1 x131 +1 x141 +1 x148 +1 x155 +1 x172 +1 x179 +1 x186 +1 x196 +1 x203 +1 x210 +1 x217 +1 x227 +1 x234 +1 x241 +1 x248 +1 x258 +1 x265 +1 x272 +1 x279 +1 x289 +1 x296 +1 x303 +1 x310 +1 x320 +1 x327 +1 x334 +1 x344 +1 x351 +1 x358 +1 x365 +1 x375 +1 x382 +1 x389 +1 x396 >= 1 ;
+1 x7 +1 x17 +1 x24 +1 x31 +1 x41 +1 x48 +1 x55 +1 x65 +1 x72 +1 x79 +1 x89 +1 x96 +1 x103 +1 x113 +1 x120 +1 x127 +1 x137 +1 x144 +1 x151 +1 x161 +1 x168 +1 x175 +1 x185 +1 x192 +1 x199 +1 x202 +1 x209 +1 x216 +1 x226 +1 x233 +1 x240 +1 x250 +1 x257 +1 x264 +1 x274 +1 x281 +1 x288 +1 x298 +1 x305 +1 x312 +1 x322 +1 x329 +1 x336 +1 x346 +1 x353 +1 x360 +1 x370 +1 x377 +1 x384 +1 x394 >= 1 ;
+1 x7 +1 x17 +1 x24 +1 x34 +1 x41 +1 x51 +1 x58 +1 x65 +1 x75 +1 x82 +1 x92 +1 x99 +1 x106 +1 x109 +1 x116 +1 x123 +1 x133 +1 x140 +1 x150 +1 x157 +1 x164 +1 x174 +1 x181 +1 x191 +1 x198 +1 x208 +1 x215 +1 x222 +1 x232 +1 x239 +1 x249 +1 x256 +1 x266 +1 x273 +1 x280 +1 x290 +1 x297 +1 x307 +1 x314 +1 x321 +1 x324 +1 x331 +1 x338 +1 x348 +1 x355 +1 x365 +1 x372 +1 x379 +1 x389 +1 x396 >= 1 ;
+1 x7 +1 x10 +1 x17 +1 x24 +1 x27 +1 x34 +1 x44 +1 x51 +1 x61 +1 x68 +1 x78 +1 x85 +1 x95 +1 x102 +1 x112 +1 x119 +1 x129 +1 x136 +1 x146 +1 x153 +1 x163 +1 x170 +1 x180 +1 x187 +1 x197 +1 x204 +1 x214 +1 x221 +1 x231 +1 x238 +1 x248 +1 x255 +1 x265 +1 x272 +1 x282 +1 x289 +1 x299 +1 x306 +1 x316 +1 x323 +1 x333 +1 x340 +1 x350 +1 x357 +1 x367 +1 x374 +1 x377 +1 x384 +1 x391 +1 x394 >= 1 ;
+1 x10 +1 x17 +1 x27 +1 x34 +1 x44 +1 x54 +1 x61 +1 x71 +1 x78 +1 x88 +1 x98 +1 x105 +1 x115 +1 x122 +1 x125 +1 x132 +1 x142 +1 x149 +1 x159 +1 x166 +1 x169 +1 x176 +1 x186 +1 x193 +1 x203 +1 x210 +1 x213 +1 x220 +1 x230 +1 x237 +1 x247 +1 x254 +1 x257 +1 x264 +1 x274 +1 x281 +1 x291 +1 x298 +1 x301 +1 x308 +1 x318 +1 x325 +1 x335 +1 x345 +1 x352 +1 x362 +1 x369 +1 x379 +1 x389 +1 x396 >= 1 ;
+1 x10 +1 x17 +1 x27 +1 x37 +1 x44 +1 x47 +1 x54 +1 x64 +1 x74 +1 x81 +1 x91 +1 x101 +1 x108 +1 x111 +1 x118 +1 x128 +1 x135 +1 x138 +1 x145 +1 x155 +1 x165 +1 x172 +1 x182 +1 x192 +1 x199 +1 x202 +1 x209 +1 x219 +1 x229 +1 x236 +1 x246 +1 x256 +1 x263 +1 x266 +1 x273 +1 x283 +1 x290 +1 x293 +1 x300 +1 x310 +1 x320 +1 x327 +1 x337 +1 x347 +1 x354 +1 x357 +1 x364 +1 x374 +1 x384 +1 x391 >= 1 ;
+1 x10 +1 x20 +1 x27 +1 x30 +1 x37 +1 x47 +1 x57 +1 x67 +1 x74 +1 x77 +1 x84 +1 x94 +1 x104 +1 x114 +1 x121 +1 x124 +1 x131 +1 x141 +1 x151 +1 x161 +1 x171 +1 x178 +1 x181 +1 x188 +1 x198 +1 x208 +1 x218 +1 x225 +1 x228 +1 x235 +1 x245 +1 x255 +1 x265 +1 x272 +1 x275 +1 x282 +1 x292 +1 x302 +1 x312 +1 x322 +1 x329 +1 x332 +1 x339 +1 x349 +1 x359 +1 x369 +1 x376 +1 x379 +1 x386 +1 x396 >= 1 ;
+1 x10 +1 x20 +1 x30 +1 x40 +1 x50 +1 x57 +1 x60 +1 x67 +1 x70 +1 x77 +1 x80 +1 x87 +1 x97 +1 x107 +1 x117 +1 x127 +1 x137 +1 x147 +1 x157 +1 x167 +1 x177 +1 x184 +1 x187 +1 x194 +1 x197 +1 x204 +1 x207 +1 x214 +1 x217 +1 x224 +1 x234 +1 x244 +1 x254 +1 x264 +1 x274 +1 x284 +1 x294 +1 x304 +1 x314 +1 x321 +1 x324 +1 x331 +1 x334 +1 x341 +1 x344 +1 x351 +1 x361 +1 x371 +1 x381 +1 x391 >= 1 ;
+1 x10 +1 x20 +1 x30 +1 x40 +1 x50 +1 x60 +1 x70 +1 x80 +1 x83 +1 x90 +1 x93 +1 x100 +1 x103 +1 x110 +1 x113 +1 x120 +1 x123 +1 x133 +1 x143 +1 x153 +1 x163 +1 x173 +1 x183 +1 x193 +1 x203 +1 x213 +1 x223 +1 x233 +1 x243 +1 x253 +1 x263 +1 x273 +1 x276 +1 x283 +1 x286 +1 x293 +1 x296 +1 x303 +1 x306 +1 x313 +1 x316 +1 x323 +1 x326 +1 x336 +1 x346 +1 x356 +1 x366 +1 x376 +1 x386 +1 x396 >= 1 ;
+1 x10 +1 x20 +1 x23 +1 x30 +1 x33 +1 x43 +1 x53 +1 x63 +1 x73 +1 x83 +1 x86 +1 x93 +1 x96 +1 x106 +1 x116 +1 x126 +1 x136 +1 x139 +1 x146 +1 x149 +1 x159 +1 x169 +1 x179 +1 x189 +1 x199 +1 x202 +1 x212 +1 x222 +1 x232 +1 x242 +1 x252 +1 x255 +1 x262 +1 x265 +1 x275 +1 x285 +1 x295 +1 x305 +1 x308 +1 x315 +1 x318 +1 x328 +1 x338 +1 x348 +1 x358 +1 x368 +1 x371 +1 x378 +1 x381 +1 x391 >= 1 ;
+1 x10 +1 x13 +1 x20 +1 x23 +1 x33 +1 x43 +1 x46 +1 x53 +1 x56 +1 x66 +1 x76 +1 x86 +1 x89 +1 x99 +1 x109 +1 x119 +1 x122 +1 x132 +1 x142 +1 x152 +1 x155 +1 x165 +1 x175 +1 x185 +1 x188 +1 x198 +1 x208 +1 x218 +1 x221 +1 x231 +1 x241 +1 x251 +1 x254 +1 x264 +1 x274 +1 x284 +1 x287 +1 x297 +1 x307 +1 x317 +1 x320 +1 x330 +1 x340 +1 x350 +1 x353 +1 x363 +1 x373 +1 x383 +1 x386 +1 x396 >= 1 ;
+1 x10 +1 x13 +1 x23 +1 x33 +1 x36 +1 x46 +1 x56 +1 x59 +1 x69 +1 x79 +1 x82 +1 x92 +1 x102 +1 x105 +1 x115 +1 x125 +1 x128 +1 x138 +1 x148 +1 x151 +1 x161 +1 x171 +1 x174 +1 x184 +1 x194 +1 x207 +1 x217 +1 x227 +1 x230 +1 x240 +1 x250 +1 x253 +1 x263 +1 x273 +1 x276 +1 x286 +1 x296 +1 x299 +1 x309 +1 x319 +1 x322 +1 x332 +1 x342 +1 x345 +1 x355 +1 x365 +1 x368 +1 x378 +1 x388 +1 x391 >= 1 ;
+1 x10 +1 x13 +1 x23 +1 x26 +1 x36 +1 x46 +1 x49 +1 x59 +1 x62 +1 x72 +1 x82 +1 x85 +1 x95 +1 x98 +1 x108 +1 x118 +1 x121 +1 x131 +1 x144 +1 x154 +1 x157 +1 x167 +1 x180 +1 x190 +1 x193 +1 x203 +1 x216 +1 x226 +1 x229 +1 x239 +1 x252 +1 x262 +1 x265 +1 x275 +1 x288 +1 x298 +1 x301 +1 x311 +1 x321 +1 x324 +1 x334 +1 x337 +1 x347 +1 x357 +1 x360 +1 x370 +1 x373 +1 x383 +1 x393 +1 x396 >= 1 ;
+1 x13 +1 x23 +1 x26 +1 x36 +1 x39 +1 x49 +1 x52 +1 x62 +1 x65 +1 x75 +1 x88 +1 x98 +1 x101 +1 x111 +1 x114 +1 x124 +1 x127 +1 x137 +1 x140 +1 x150 +1 x163 +1 x176 +1 x186 +1 x189 +1 x199 +1 x202 +1 x212 +1 x215 +1 x225 +1 x238 +1 x251 +1 x261 +1 x264 +1 x274 +1 x277 +1 x287 +1 x290 +1 x300 +1 x303 +1 x313 +1 x326 +1 x336 +1 x339 +1 x349 +1 x352 +1 x362 +1 x365 +1 x375 +1 x378 +1 x388 >= 1 ;
+1 x13 +1 x26 +1 x39 +1 x52 +1 x55 +1 x65 +1 x68 +1 x78 +1 x81 +1 x91 +1 x94 +1 x104 +1 x107 +1 x117 +1 x120 +1 x130 +1 x133 +1 x143 +1 x146 +1 x156 +1 x159 +1 x169 +1 x172 +1 x182 +1 x185 +1 x195 +1 x198 +1 x208 +1 x211 +1 x224 +1 x237 +1 x250 +1 x263 +1 x276 +1 x289 +1 x302 +1 x315 +1 x318 +1 x328 +1 x331 +1 x341 +1 x344 +1 x354 +1 x357 +1 x367 +1 x370 +1 x380 +1 x383 +1 x393 +1 x396 >= 1 ;
+1 x13 +1 x16 +1 x26 +1 x29 +1 x39 +1 x42 +1 x55 +1 x68 +1 x71 +1 x81 +1 x84 +1 x97 +1 x110 +1 x113 +1 x123 +1 x126 +1 x136 +1 x139 +1 x152 +1 x165 +1 x168 +1 x178 +1 x181 +1 x191 +1 x194 +1 x207 +1 x210 +1 x220 +1 x223 +1 x233 +1 x236 +1 x249 +1 x262 +1 x265 +1 x275 +1 x278 +1 x288 +1 x291 +1 x304 +1 x317 +1 x320 +1 x330 +1 x333 +1 x346 +1 x359 +1 x362 +1 x372 +1 x375 +1 x385 +1 x388 >= 1 ;
+1 x13 +1 x16 +1 x29 +1 x42 +1 x45 +1 x58 +1 x61 +1 x71 +1 x74 +1 x87 +1 x90 +1 x100 +1 x103 +1 x116 +1 x119 +1 x129 +1 x132 +1 x145 +1 x148 +1 x158 +1 x161 +1 x174 +1 x177 +1 x187 +1 x190 +1 x203 +1 x206 +1 x216 +1 x219 +1 x232 +1 x235 +1 x248 +1 x261 +1 x264 +1 x277 +1 x290 +1 x293 +1 x306 +1 x319 +1 x322 +1 x335 +1 x338 +1 x348 +1 x351 +1 x364 +1 x367 +1 x377 +1 x380 +1 x393 +1 x396 >= 1 ;
+1 x13 +1 x16 +1 x29 +1 x32 +1 x45 +1 x48 +1 x61 +1 x64 +1 x77 +1 x80 +1 x90 +1 x93 +1 x106 +1 x109 +1 x122 +1 x125 +1 x138 +1 x141 +1 x154 +1 x157 +1 x167 +1 x170 +1 x183 +1 x186 +1 x199 +1 x202 +1 x215 +1 x218 +1 x231 +1 x234 +1 x244 +1 x247 +1 x260 +1 x263 +1 x276 +1 x279 +1 x292 +1 x295 +1 x308 +1 x311 +1 x321 +1 x324 +1 x337 +1 x340 +1 x353 +1 x356 +1 x369 +1 x372 +1 x385 +1 x388 >= 1 ;
+1 x3 +1 x16 +1 x19 +1 x32 +1 x35 +1 x48 +1 x51 +1 x64 +1 x67 +1 x80 +1 x83 +1 x96 +1 x99 +1 x112 +1 x115 +1 x128 +1 x131 +1 x134 +1 x147 +1 x150 +1 x163 +1 x166 +1 x179 +1 x182 +1 x195 +1 x198 +1 x211 +1 x214 +1 x227 +1 x230 +1 x243 +1 x246 +1 x259 +1 x262 +1 x278 +1 x281 +1 x294 +1 x297 +1 x310 +1 x313 +1 x326 +1 x329 +1 x342 +1 x345 +1 x358 +1 x361 +1 x374 +1 x377 +1 x390 +1 x393 >= 1 ;
+1 x3 +1 x16 +1 x19 +1 x32 +1 x35 +1 x38 +1 x51 +1 x54 +1 x67 +1 x70 +1 x73 +1 x86 +1 x89 +1 x102 +1 x105 +1 x121 +1 x124 +1 x137 +1 x140 +1 x156 +1 x159 +1 x172 +1 x175 +1 x191 +1 x194 +1 x207 +1 x210 +1 x226 +1 x229 +1 x242 +1 x245 +1 x261 +1 x264 +1 x277 +1 x280 +1 x296 +1 x299 +1 x312 +1 x315 +1 x328 +1 x331 +1 x334 +1 x347 +1 x350 +1 x363 +1 x366 +1 x369 +1 x382 +1 x385 +1 x398 >= 1 ;
+1 x3 +1 x16 +1 x19 +1 x22 +1 x35 +1 x38 +1 x54 +1 x57 +1 x73 +1 x76 +1 x92 +1 x95 +1 x111 +1 x114 +1 x130 +1 x133 +1 x146 +1 x149 +1 x152 +1 x165 +1 x168 +1 x171 +1 x184 +1 x187 +1 x190 +1 x203 +1 x206 +1 x222 +1 x225 +1 x241 +1 x244 +1 x260 +1 x263 +1 x279 +1 x282 +1 x295 +1 x298 +1 x301 +1 x314 +1 x317 +1 x320 +1 x333 +1 x336 +1 x339 +1 x352 +1 x355 +1 x371 +1 x374 +1 x390 +1 x393 >= 1 ;
+1 x3 +1 x19 +1 x22 +1 x38 +1 x41 +1 x57 +1 x60 +1 x63 +1 x79 +1 x82 +1 x98 +1 x101 +1 x104 +1 x117 +1 x120 +1 x123 +1 x139 +1 x142 +1 x158 +1 x161 +1 x164 +1 x177 +1 x180 +1 x183 +1 x199 +1 x202 +1 x218 +1 x221 +1 x224 +1 x237 +1 x240 +1 x243 +1 x259 +1 x262 +1 x278 +1 x281 +1 x284 +1 x297 +1 x300 +1 x303 +1 x319 +1 x322 +1 x338 +1 x341 +1 x344 +1 x360 +1 x363 +1 x379 +1 x382 +1 x398 >= 1 ;
+1 x3 +1 x19 +1 x22 +1 x25 +1 x41 +1 x44 +1 x47 +1 x63 +1 x66 +1 x69 +1 x85 +1 x88 +1 x107 +1 x110 +1 x126 +1 x129 +1 x132 +1 x148 +1 x151 +1 x154 +1 x170 +1 x173 +1 x176 +1 x192 +1 x195 +1 x198 +1 x214 +1 x217 +1 x220 +1 x236 +1 x239 +1 x242 +1 x258 +1 x261 +1 x264 +1 x280 +1 x283 +1 x302 +1 x305 +1 x324 +1 x327 +1 x343 +1 x346 +1 x349 +1 x365 +1 x368 +1 x371 +1 x387 +1 x390 +1 x393 >= 1 ;
+1 x3 +1 x22 +1 x25 +1 x28 +1 x44 +1 x47 +1 x50 +1 x69 +1 x72 +1 x75 +1 x91 +1 x94 +1 x97 +1 x116 +1 x119 +1 x122 +1 x138 +1 x141 +1 x144 +1 x163 +1 x166 +1 x169 +1 x185 +1 x188 +1 x191 +1 x210 +1 x213 +1 x216 +1 x232 +1 x235 +1 x238 +1 x257 +1 x260 +1 x263 +1 x279 +1 x282 +1 x285 +1 x304 +1 x307 +1 x310 +1 x326 +1 x329 +1 x332 +1 x351 +1 x354 +1 x357 +1 x373 +1 x376 +1 x379 +1 x398 >= 1 ;
+1 x3 +1 x22 +1 x25 +1 x28 +1 x47 +1 x50 +1 x53 +1 x56 +1 x75 +1 x78 +1 x81 +1 x100 +1 x103 +1 x106 +1 x125 +1 x128 +1 x131 +1 x134 +1 x153 +1 x156 +1 x159 +1 x178 +1 x181 +1 x184 +1 x203 +1 x206 +1 x209 +1 x228 +1 x231 +1 x234 +1 x237 +1 x256 +1 x259 +1 x262 +1 x281 +1 x284 +1 x287 +1 x306 +1 x309 +1 x312 +1 x315 +1 x334 +1 x337 +1 x340 +1 x359 +1 x362 +1 x365 +1 x384 +1 x387 +1 x390 >= 1 ;
+1 x3 +1 x25 +1 x28 +1 x31 +1 x34 +1 x53 +1 x56 +1 x59 +1 x62 +1 x81 +1 x84 +1 x87 +1 x90 +1 x112 +1 x115 +1 x118 +1 x140 +1 x143 +1 x146 +1 x168 +1 x171 +1 x174 +1 x177 +1 x196 +1 x199 +1 x202 +1 x205 +1 x224 +1 x227 +1 x230 +1 x233 +1 x255 +1 x258 +1 x261 +1 x283 +1 x286 +1 x289 +1 x311 +1 x314 +1 x317 +1 x320 +1 x339 +1 x342 +1 x345 +1 x348 +1 x367 +1 x370 +1 x373 +1 x376 +1 x398 >= 1 ;
+1 x3 +1 x6 +1 x28 +1 x31 +1 x34 +1 x37 +1 x59 +1 x62 +1 x65 +1 x68 +1 x93 +1 x96 +1 x99 +1 x102 +1 x124 +1 x127 +1 x130 +1 x133 +1 x155 +1 x158 +1 x161 +1 x164 +1 x189 +1 x192 +1 x195 +1 x198 +1 x220 +1 x223 +1 x226 +1 x229 +1 x251 +1 x254 +1 x257 +1 x260 +1 x285 +1 x288 +1 x291 +1 x294 +1 x316 +1 x319 +1 x322 +1 x325 +1 x347 +1 x350 +1 x353 +1 x356 +1 x381 +1 x384 +1 x387 +1 x390 >= 1 ;
+1 x3 +1 x6 +1 x31 +1 x34 +1 x37 +1 x40 +1 x43 +1 x68 +1 x71 +1 x74 +1 x77 +1 x105 +1 x108 +1 x111 +1 x114 +1 x139 +1 x142 +1 x145 +1 x148 +1 x151 +1 x176 +1 x179 +1 x182 +1 x185 +1 x188 +1 x213 +1 x216 +1 x219 +1 x222 +1 x225 +1 x250 +1 x253 +1 x256 +1 x259 +1 x262 +1 x287 +1 x290 +1 x293 +1 x296 +1 x324 +1 x327 +1 x330 +1 x333 +1 x358 +1 x361 +1 x364 +1 x367 +1 x370 +1 x395 +1 x398 >= 1 ;
+1 x3 +1 x6 +1 x37 +1 x40 +1 x43 +1 x46 +1 x49 +1 x77 +1 x80 +1 x83 +1 x86 +1 x89 +1 x92 +1 x120 +1 x123 +1 x126 +1 x129 +1 x132 +1 x163 +1 x166 +1 x169 +1 x172 +1 x175 +1 x206 +1 x209 +1 x212 +1 x215 +1 x218 +1 x246 +1 x249 +1 x252 +1 x255 +1 x258 +1 x261 +1 x289 +1 x292 +1 x295 +1 x298 +1 x301 +1 x332 +1 x335 +1 x338 +1 x341 +1 x344 +1 x372 +1 x375 +1 x378 +1 x381 +1 x384 +1 x387 >= 1 ;
+1 x3 +1 x6 +1 x9 +1 x43 +1 x46 +1 x49 +1 x52 +1 x55 +1 x58 +1 x92 +1 x95 +1 x98 +1 x101 +1 x104 +1 x107 +1 x141 +1 x144 +1 x147 +1 x150 +1 x153 +1 x156 +1 x159 +1 x193 +1 x196 +1 x199 +1 x202 +1 x205 +1 x208 +1 x242 +1 x245 +1 x248 +1 x251 +1 x254 +1 x257 +1 x260 +1 x294 +1 x297 +1 x300 +1 x303 +1 x306 +1 x309 +1 x343 +1 x346 +1 x349 +1 x352 +1 x355 +1 x358 +1 x392 +1 x395 +1 x398 >= 1 ;
+1 x3 +1 x6 +1 x9 +1 x52 +1 x55 +1 x58 +1 x61 +1 x64 +1 x67 +1 x70 +1 x73 +1 x113 +1 x116 +1 x119 +1 x122 +1 x125 +1 x128 +1 x131 +1 x134 +1 x174 +1 x177 +1 x180 +1 x183 +1 x186 +1 x189 +1 x192 +1 x195 +1 x238 +1 x241 +1 x244 +1 x247 +1 x250 +1 x253 +1 x256 +1 x299 +1 x302 +1 x305 +1 x308 +1 x311 +1 x314 +1 x317 +1 x320 +1 x360 +1 x363 +1 x366 +1 x369 +1 x372 +1 x375 +1 x378 +1 x381 >= 1 ;
+1 x3 +1 x6 +1 x9 +1 x12 +1 x15 +1 x67 +1 x70 +1 x73 +1 x76 +1 x79 +1 x82 +1 x85 +1 x88 +1 x91 +1 x94 +1 x146 +1 x149 +1 x152 +1 x155 +1 x158 +1 x161 +1 x164 +1 x167 +1 x170 +1 x173 +1 x228 +1 x231 +1 x234 +1 x237 +1 x240 +1 x243 +1 x246 +1 x249 +1 x252 +1 x255 +1 x307 +1 x310 +1 x313 +1 x316 +1 x319 +1 x322 +1 x325 +1 x328 +1 x331 +1 x334 +1 x386 +1 x389 +1 x392 +1 x395 +1 x398 >= 1 ;
+1 x3 +1 x6 +1 x9 +1 x12 +1 x15 +1 x18 +1 x21 +1 x94 +1 x97 +1 x100 +1 x103 +1 x106 +1 x109 +1 x112 +1 x115 +1 x118 +1 x121 +1 x124 +1 x127 +1 x130 +1 x133 +1 x136 +1 x209 +1 x212 +1 x215 +1 x218 +1 x221 +1 x224 +1 x227 +1 x230 +1 x233 +1 x236 +1 x239 +1 x242 +1 x245 +1 x248 +1 x324 +1 x327 +1 x330 +1 x333 +1 x336 +1 x339 +1 x342 +1 x345 +1 x348 +1 x351 +1 x354 +1 x357 +1 x360 +1 x363 >= 1 ;
+1 x3 +1 x6 +1 x9 +1 x12 +1 x15 +1 x18 +1 x21 +1 x24 +1 x27 +1 x30 +1 x33 +1 x36 +1 x163 +1 x166 +1 x169 +1 x172 +1 x175 +1 x178 +1 x181 +1 x184 +1 x187 +1 x190 +1 x193 +1 x196 +1 x199 +1 x202 +1 x205 +1 x208 +1 x211 +1 x214 +1 x217 +1 x220 +1 x223 +1 x226 +1 x229 +1 x232 +1 x235 +1 x238 +1 x365 +1 x368 +1 x371 +1 x374 +1 x377 +1 x380 +1 x383 +1 x386 +1 x389 +1 x392 +1 x395 +1 x398 >= 1 ;
+1 x3 +1 x6 +1 x9 +1 x12 +1 x15 +1 x18 +1 x21 +1 x24 +1 x27 +1 x30 +1 x33 +1 x36 +1 x39 +1 x42 +1 x45 +1 x48 +1 x51 +1 x54 +1 x57 +1 x60 +1 x63 +1 x66 +1 x69 +1 x72 +1 x75 +1 x78 +1 x81 +1 x84 +1 x87 +1 x90 +1 x93 +1 x96 +1 x99 +1 x102 +1 x105 +1 x108 +1 x111 +1 x114 +1 x117 +1 x120 +1 x123 +1 x126 +1 x129 +1 x132 +1 x135 +1 x138 +1 x141 +1 x144 +1 x147 +1 x150 >= 1 ;
+1 x3 +1 x6 +1 x9 +1 x12 +1 x15 +1 x18 +1 x21 +1 x24 +1 x27 +1 x30 +1 x33 +1 x36 +1 x39 +1 x42 +1 x45 +1 x48 +1 x51 +1 x54 +1 x57 +1 x60 +1 x63 +1 x66 +1 x69 +1 x72 +1 x75 +1 x326 +1 x329 +1 x332 +1 x335 +1 x338 +1 x341 +1 x344 +1 x347 +1 x350 +1 x353 +1 x356 +1 x359 +1 x362 +1 x365 +1 x368 +1 x371 +1 x374 +1 x377 +1 x380 +1 x383 +1 x386 +1 x389 +1 x392 +1 x395 +1 x398 >= 1 ;
+1 x3 +1 x6 +1 x9 +1 x12 +1 x15 +1 x18 +1 x21 +1 x24 +1 x27 +1 x30 +1 x131 +1 x134 +1 x137 +1 x140 +1 x143 +1 x146 +1 x149 +1 x152 +1 x155 +1 x158 +1 x161 +1 x164 +1 x167 +1 x170 +1 x173 +1 x176 +1 x179 +1 x182 +1 x185 +1 x188 +1 x292 +1 x295 +1 x298 +1 x301 +1 x304 +1 x307 +1 x310 +1 x313 +1 x316 +1 x319 +1 x322 +1 x325 +1 x328 +1 x331 +1 x334 +1 x337 +1 x340 +1 x343 +1 x346 +1 x349 >= 1 ;
+1 x3 +1 x6 +1 x9 +1 x12 +1 x15 +1 x18 +1 x83 +1 x86 +1 x89 +1 x92 +1 x95 +1 x98 +1 x101 +1 x104 +1 x107 +1 x110 +1 x113 +1 x116 +1 x119 +1 x184 +1 x187 +1 x190 +1 x193 +1 x196 +1 x199 +1 x202 +1 x205 +1 x208 +1 x211 +1 x214 +1 x217 +1 x282 +1 x285 +1 x288 +1 x291 +1 x294 +1 x297 +1 x300 +1 x303 +1 x306 +1 x309 +1 x312 +1 x315 +1 x318 +1 x383 +1 x386 +1 x389 +1 x392 +1 x395 +1 x398 >= 1 ;
+1 x3 +1 x6 +1 x9 +1 x12 +1 x62 +1 x65 +1 x68 +1 x71 +1 x74 +1 x77 +1 x80 +1 x83 +1 x86 +1 x133 +1 x136 +1 x139 +1 x142 +1 x145 +1 x148 +1 x151 +1 x154 +1 x157 +1 x207 +1 x210 +1 x213 +1 x216 +1 x219 +1 x222 +1 x225 +1 x228 +1 x231 +1 x278 +1 x281 +1 x284 +1 x287 +1 x290 +1 x293 +1 x296 +1 x299 +1 x302 +1 x305 +1 x352 +1 x355 +1 x358 +1 x361 +1 x364 +1 x367 +1 x370 +1 x373 +1 x376 >= 1 ;
+1 x3 +1 x6 +1 x9 +1 x47 +1 x50 +1 x53 +1 x56 +1 x59 +1 x62 +1 x65 +1 x68 +1 x106 +1 x109 +1 x112 +1 x115 +1 x118 +1 x121 +1 x124 +1 x162 +1 x165 +1 x168 +1 x171 +1 x174 +1 x177 +1 x180 +1 x221 +1 x224 +1 x227 +1 x230 +1 x233 +1 x236 +1 x239 +1 x277 +1 x280 +1 x283 +1 x286 +1 x289 +1 x292 +1 x295 +1 x333 +1 x336 +1 x339 +1 x342 +1 x345 +1 x348 +1 x351 +1 x354 +1 x392 +1 x395 +1 x398 >= 1 ;
+1 x3 +1 x6 +1 x41 +1 x44 +1 x47 +1 x50 +1 x53 +1 x56 +1 x88 +1 x91 +1 x94 +1 x97 +1 x100 +1 x103 +1 x135 +1 x138 +1 x141 +1 x144 +1 x147 +1 x150 +1 x182 +1 x185 +1 x188 +1 x191 +1 x194 +1 x197 +1 x229 +1 x232 +1 x235 +1 x238 +1 x241 +1 x244 +1 x276 +1 x279 +1 x282 +1 x285 +1 x288 +1 x291 +1 x323 +1 x326 +1 x329 +1 x332 +1 x335 +1 x338 +1 x370 +1 x373 +1 x376 +1 x379 +1 x382 +1 x385 >= 1 ;
+1 x3 +1 x6 +1 x35 +1 x38 +1 x41 +1 x44 +1 x47 +1 x73 +1 x76 +1 x79 +1 x82 +1 x85 +1 x114 +1 x117 +1 x120 +1 x123 +1 x126 +1 x155 +1 x158 +1 x161 +1 x164 +1 x167 +1 x193 +1 x196 +1 x199 +1 x202 +1 x205 +1 x208 +1 x234 +1 x237 +1 x240 +1 x243 +1 x246 +1 x275 +1 x278 +1 x281 +1 x284 +1 x287 +1 x316 +1 x319 +1 x322 +1 x325 +1 x328 +1 x354 +1 x357 +1 x360 +1 x363 +1 x366 +1 x395 +1 x398 >= 1 ;
+1 x3 +1 x6 +1 x29 +1 x32 +1 x35 +1 x38 +1 x41 +1 x64 +1 x67 +1 x70 +1 x73 +1 x76 +1 x99 +1 x102 +1 x105 +1 x108 +1 x111 +1 x134 +1 x137 +1 x140 +1 x143 +1 x146 +1 x169 +1 x172 +1 x175 +1 x178 +1 x204 +1 x207 +1 x210 +1 x213 +1 x239 +1 x242 +1 x245 +1 x248 +1 x274 +1 x277 +1 x280 +1 x283 +1 x309 +1 x312 +1 x315 +1 x318 +1 x344 +1 x347 +1 x350 +1 x353 +1 x379 +1 x382 +1 x385 +1 x388 >= 1 ;
+1 x3 +1 x26 +1 x29 +1 x32 +1 x35 +1 x58 +1 x61 +1 x64 +1 x67 +1 x87 +1 x90 +1 x93 +1 x96 +1 x119 +1 x122 +1 x125 +1 x128 +1 x151 +1 x154 +1 x157 +1 x160 +1 x180 +1 x183 +1 x186 +1 x189 +1 x212 +1 x215 +1 x218 +1 x221 +1 x241 +1 x244 +1 x247 +1 x250 +1 x273 +1 x276 +1 x279 +1 x282 +1 x305 +1 x308 +1 x311 +1 x314 +1 x334 +1 x337 +1 x340 +1 x343 +1 x366 +1 x369 +1 x372 +1 x375 +1 x398 >= 1 ;
+1 x3 +1 x23 +1 x26 +1 x29 +1 x32 +1 x52 +1 x55 +1 x58 +1 x78 +1 x81 +1 x84 +1 x87 +1 x107 +1 x110 +1 x113 +1 x136 +1 x139 +1 x142 +1 x162 +1 x165 +1 x168 +1 x171 +1 x191 +1 x194 +1 x197 +1 x217 +1 x220 +1 x223 +1 x226 +1 x246 +1 x249 +1 x252 +1 x272 +1 x275 +1 x278 +1 x281 +1 x301 +1 x304 +1 x307 +1 x327 +1 x330 +1 x333 +1 x336 +1 x356 +1 x359 +1 x362 +1 x382 +1 x385 +1 x388 +1 x391 >= 1 ;
+1 x3 +1 x23 +1 x26 +1 x29 +1 x46 +1 x49 +1 x52 +1 x72 +1 x75 +1 x78 +1 x98 +1 x101 +1 x104 +1 x121 +1 x124 +1 x127 +1 x130 +1 x147 +1 x150 +1 x153 +1 x173 +1 x176 +1 x179 +1 x196 +1 x199 +1 x202 +1 x205 +1 x222 +1 x225 +1 x228 +1 x248 +1 x251 +1 x254 +1 x271 +1 x274 +1 x277 +1 x280 +1 x297 +1 x300 +1 x303 +1 x323 +1 x326 +1 x329 +1 x349 +1 x352 +1 x355 +1 x372 +1 x375 +1 x378 +1 x398 >= 1 ;
+1 x3 +1 x20 +1 x23 +1 x26 +1 x43 +1 x46 +1 x49 +1 x66 +1 x69 +1 x72 +1 x89 +1 x92 +1 x95 +1 x112 +1 x115 +1 x118 +1 x135 +1 x138 +1 x141 +1 x158 +1 x161 +1 x164 +1 x181 +1 x184 +1 x187 +1 x204 +1 x207 +1 x210 +1 x227 +1 x230 +1 x233 +1 x250 +1 x253 +1 x256 +1 x273 +1 x276 +1 x279 +1 x296 +1 x299 +1 x302 +1 x319 +1 x322 +1 x325 +1 x342 +1 x345 +1 x348 +1 x365 +1 x368 +1 x388 +1 x391 >= 1 ;
+1 x3 +1 x20 +1 x23 +1 x40 +1 x43 +1 x46 +1 x60 +1 x63 +1 x66 +1 x83 +1 x86 +1 x103 +1 x106 +1 x109 +1 x123 +1 x126 +1 x129 +1 x146 +1 x149 +1 x166 +1 x169 +1 x172 +1 x186 +1 x189 +1 x192 +1 x209 +1 x212 +1 x215 +1 x229 +1 x232 +1 x235 +1 x252 +1 x255 +1 x272 +1 x275 +1 x278 +1 x292 +1 x295 +1 x298 +1 x315 +1 x318 +1 x335 +1 x338 +1 x341 +1 x355 +1 x358 +1 x361 +1 x378 +1 x381 +1 x398 >= 1 ;
+1 x3 +1 x17 +1 x20 +1 x23 +1 x37 +1 x40 +1 x57 +1 x60 +1 x77 +1 x80 +1 x97 +1 x100 +1 x114 +1 x117 +1 x120 +1 x134 +1 x137 +1 x140 +1 x154 +1 x157 +1 x160 +1 x174 +1 x177 +1 x194 +1 x197 +1 x214 +1 x217 +1 x234 +1 x237 +1 x251 +1 x254 +1 x257 +1 x271 +1 x274 +1 x277 +1 x291 +1 x294 +1 x297 +1 x311 +1 x314 +1 x331 +1 x334 +1 x351 +1 x354 +1 x368 +1 x371 +1 x374 +1 x388 +1 x391 +1 x394 >= 1 ;
+1 x3 +1 x17 +1 x20 +1 x34 +1 x37 +1 x54 +1 x57 +1 x71 +1 x74 +1 x88 +1 x91 +1 x94 +1 x108 +1 x111 +1 x125 +1 x128 +1 x131 +1 x145 +1 x148 +1 x162 +1 x165 +1 x179 +1 x182 +1 x185 +1 x199 +1 x202 +1 x216 +1 x219 +1 x222 +1 x236 +1 x239 +1 x253 +1 x256 +1 x270 +1 x273 +1 x276 +1 x290 +1 x293 +1 x307 +1 x310 +1 x313 +1 x327 +1 x330 +1 x344 +1 x347 +1 x364 +1 x367 +1 x381 +1 x384 +1 x398 >= 1 ;
+1 x3 +1 x14 +1 x17 +1 x20 +1 x31 +1 x34 +1 x37 +1 x48 +1 x51 +1 x54 +1 x68 +1 x71 +1 x85 +1 x88 +1 x102 +1 x105 +1 x119 +1 x122 +1 x136 +1 x139 +1 x153 +1 x156 +1 x170 +1 x173 +1 x187 +1 x190 +1 x204 +1 x207 +1 x221 +1 x224 +1 x238 +1 x241 +1 x255 +1 x258 +1 x272 +1 x275 +1 x289 +1 x292 +1 x306 +1 x309 +1 x323 +1 x326 +1 x340 +1 x343 +1 x357 +1 x360 +1 x374 +1 x377 +1 x391 +1 x394 >= 1 ;
+1 x3 +1 x14 +1 x17 +1 x31 +1 x34 +1 x48 +1 x51 +1 x62 +1 x65 +1 x79 +1 x82 +1 x96 +1 x99 +1 x110 +1 x113 +1 x127 +1 x130 +1 x144 +1 x147 +1 x158 +1 x161 +1 x175 +1 x178 +1 x192 +1 x195 +1 x206 +1 x209 +1 x223 +1 x226 +1 x240 +1 x243 +1 x254 +1 x257 +1 x271 +1 x274 +1 x288 +1 x291 +1 x302 +1 x305 +1 x319 +1 x322 +1 x336 +1 x339 +1 x350 +1 x353 +1 x367 +1 x370 +1 x384 +1 x387 +1 x398 >= 1 ;
+1 x14 +1 x17 +1 x28 +1 x31 +1 x45 +1 x48 +1 x59 +1 x62 +1 x73 +1 x76 +1 x90 +1 x93 +1 x104 +1 x107 +1 x121 +1 x135 +1 x138 +1 x149 +1 x152 +1 x166 +1 x169 +1 x180 +1 x183 +1 x194 +1 x197 +1 x211 +1 x214 +1 x225 +1 x228 +1 x242 +1 x256 +1 x259 +1 x270 +1 x273 +1 x287 +1 x290 +1 x301 +1 x304 +1 x315 +1 x318 +1 x332 +1 x335 +1 x346 +1 x349 +1 x363 +1 x366 +1 x377 +1 x380 +1 x391 +1 x394 >= 1 ;
+1 x14 +1 x17 +1 x28 +1 x31 +1 x42 +1 x45 +1 x56 +1 x59 +1 x70 +1 x73 +1 x84 +1 x87 +1 x98 +1 x101 +1 x112 +1 x115 +1 x129 +1 x143 +1 x157 +1 x160 +1 x171 +1 x174 +1 x185 +1 x188 +1 x199 +1 x202 +1 x213 +1 x216 +1 x227 +1 x230 +1 x241 +1 x244 +1 x258 +1 x272 +1 x286 +1 x289 +1 x300 +1 x303 +1 x314 +1 x317 +1 x328 +1 x331 +1 x342 +1 x345 +1 x356 +1 x359 +1 x370 +1 x373 +1 x384 +1 x387 >= 1 ;
+1 x14 +1 x25 +1 x28 +1 x39 +1 x42 +1 x53 +1 x56 +1 x67 +1 x70 +1 x81 +1 x84 +1 x95 +1 x109 +1 x120 +1 x123 +1 x134 +1 x137 +1 x148 +1 x151 +1 x162 +1 x165 +1 x176 +1 x179 +1 x190 +1 x204 +1 x215 +1 x218 +1 x229 +1 x232 +1 x243 +1 x246 +1 x257 +1 x260 +1 x271 +1 x274 +1 x285 +1 x288 +1 x299 +1 x313 +1 x324 +1 x327 +1 x338 +1 x341 +1 x352 +1 x355 +1 x366 +1 x369 +1 x380 +1 x383 +1 x394 >= 1 ;
+1 x11 +1 x14 +1 x25 +1 x28 +1 x39 +1 x50 +1 x53 +1 x64 +1 x67 +1 x78 +1 x89 +1 x92 +1 x103 +1 x114 +1 x117 +1 x128 +1 x131 +1 x142 +1 x153 +1 x156 +1 x167 +1 x170 +1 x181 +1 x192 +1 x195 +1 x206 +1 x209 +1 x220 +1 x231 +1 x234 +1 x245 +1 x248 +1 x259 +1 x270 +1 x273 +1 x284 +1 x287 +1 x298 +1 x309 +1 x312 +1 x323 +1 x334 +1 x337 +1 x348 +1 x351 +1 x362 +1 x373 +1 x376 +1 x387 +1 x390 >= 1 ;
+1 x11 +1 x14 +1 x25 +1 x36 +1 x39 +1 x50 +1 x61 +1 x64 +1 x72 +1 x75 +1 x86 +1 x97 +1 x100 +1 x111 +1 x122 +1 x125 +1 x136 +1 x147 +1 x150 +1 x161 +1 x172 +1 x175 +1 x183 +1 x186 +1 x197 +1 x208 +1 x211 +1 x222 +1 x233 +1 x236 +1 x247 +1 x258 +1 x261 +1 x272 +1 x283 +1 x286 +1 x294 +1 x297 +1 x308 +1 x319 +1 x322 +1 x333 +1 x344 +1 x347 +1 x358 +1 x369 +1 x372 +1 x383 +1 x394 +1 x397 >= 1 ;
+1 x11 +1 x14 +1 x22 +1 x25 +1 x36 +1 x47 +1 x58 +1 x61 +1 x69 +1 x72 +1 x83 +1 x94 +1 x105 +1 x108 +1 x116 +1 x119 +1 x130 +1 x141 +1 x152 +1 x155 +1 x163 +1 x166 +1 x177 +1 x188 +1 x199 +1 x202 +1 x213 +1 x224 +1 x235 +1 x238 +1 x246 +1 x249 +1 x260 +1 x271 +1 x282 +1 x285 +1 x293 +1 x296 +1 x307 +1 x318 +1 x329 +1 x332 +1 x340 +1 x343 +1 x354 +1 x365 +1 x376 +1 x379 +1 x387 +1 x390 >= 1 ;
+1 x11 +1 x22 +1 x33 +1 x36 +1 x44 +1 x47 +1 x55 +1 x58 +1 x66 +1 x69 +1 x77 +1 x80 +1 x91 +1 x102 +1 x113 +1 x124 +1 x135 +1 x146 +1 x157 +1 x160 +1 x168 +1 x171 +1 x179 +1 x182 +1 x190 +1 x193 +1 x204 +1 x215 +1 x226 +1 x237 +1 x248 +1 x259 +1 x270 +1 x273 +1 x281 +1 x284 +1 x292 +1 x295 +1 x303 +1 x306 +1 x317 +1 x328 +1 x339 +1 x350 +1 x361 +1 x372 +1 x383 +1 x386 +1 x394 +1 x397 >= 1 ;
+1 x11 +1 x22 +1 x33 +1 x44 +1 x55 +1 x63 +1 x66 +1 x74 +1 x77 +1 x85 +1 x88 +1 x96 +1 x99 +1 x107 +1 x110 +1 x118 +1 x121 +1 x129 +1 x132 +1 x140 +1 x151 +1 x162 +1 x173 +1 x184 +1 x195 +1 x206 +1 x217 +1 x228 +1 x239 +1 x250 +1 x261 +1 x269 +1 x272 +1 x280 +1 x283 +1 x291 +1 x294 +1 x302 +1 x305 +1 x313 +1 x316 +1 x324 +1 x327 +1 x335 +1 x338 +1 x346 +1 x357 +1 x368 +1 x379 +1 x390 >= 1 ;
+1 x11 +1 x19 +1 x22 +1 x30 +1 x33 +1 x41 +1 x52 +1 x63 +1 x71 +1 x74 +1 x82 +1 x85 +1 x93 +1 x104 +1 x115 +1 x126 +1 x134 +1 x137 +1 x145 +1 x156 +1 x167 +1 x178 +1 x186 +1 x189 +1 x197 +1 x208 +1 x219 +1 x230 +1 x238 +1 x241 +1 x249 +1 x260 +1 x271 +1 x282 +1 x290 +1 x293 +1 x301 +1 x304 +1 x312 +1 x323 +1 x334 +1 x342 +1 x345 +1 x353 +1 x356 +1 x364 +1 x375 +1 x386 +1 x394 +1 x397 >= 1 ;
+1 x11 +1 x19 +1 x30 +1 x41 +1 x49 +1 x52 +1 x60 +1 x71 +1 x79 +1 x82 +1 x90 +1 x101 +1 x109 +1 x112 +1 x120 +1 x131 +1 x139 +1 x142 +1 x150 +1 x161 +1 x169 +1 x172 +1 x180 +1 x191 +1 x199 +1 x202 +1 x210 +1 x221 +1 x229 +1 x232 +1 x240 +1 x251 +1 x259 +1 x262 +1 x270 +1 x281 +1 x289 +1 x292 +1 x300 +1 x311 +1 x319 +1 x322 +1 x330 +1 x341 +1 x349 +1 x352 +1 x360 +1 x371 +1 x382 +1 x390 >= 1 ;
+1 x8 +1 x11 +1 x19 +1 x30 +1 x38 +1 x49 +1 x57 +1 x68 +1 x76 +1 x79 +1 x87 +1 x95 +1 x98 +1 x106 +1 x117 +1 x125 +1 x136 +1 x144 +1 x155 +1 x163 +1 x166 +1 x174 +1 x182 +1 x185 +1 x193 +1 x204 +1 x212 +1 x223 +1 x231 +1 x242 +1 x250 +1 x253 +1 x261 +1 x269 +1 x272 +1 x280 +1 x291 +1 x299 +1 x310 +1 x318 +1 x329 +1 x337 +1 x340 +1 x348 +1 x356 +1 x359 +1 x367 +1 x378 +1 x386 +1 x397 >= 1 ;
+1 x8 +1 x11 +1 x19 +1 x27 +1 x38 +1 x46 +1 x57 +1 x65 +1 x73 +1 x76 +1 x84 +1 x92 +1 x95 +1 x103 +1 x111 +1 x122 +1 x130 +1 x141 +1 x149 +1 x157 +1 x160 +1 x168 +1 x176 +1 x187 +1 x195 +1 x206 +1 x214 +1 x225 +1 x233 +1 x241 +1 x244 +1 x252 +1 x260 +1 x271 +1 x279 +1 x290 +1 x298 +1 x306 +1 x309 +1 x317 +1 x325 +1 x328 +1 x336 +1 x344 +1 x355 +1 x363 +1 x374 +1 x382 +1 x390 +1 x393 >= 1 ;
+1 x8 +1 x19 +1 x27 +1 x35 +1 x46 +1 x54 +1 x62 +1 x73 +1 x81 +1 x89 +1 x100 +1 x108 +1 x116 +1 x127 +1 x135 +1 x143 +1 x154 +1 x162 +1 x170 +1 x181 +1 x189 +1 x197 +1 x208 +1 x216 +1 x224 +1 x235 +1 x243 +1 x251 +1 x254 +1 x262 +1 x270 +1 x278 +1 x281 +1 x289 +1 x297 +1 x305 +1 x308 +1 x316 +1 x324 +1 x332 +1 x335 +1 x343 +1 x351 +1 x359 +1 x362 +1 x370 +1 x378 +1 x386 +1 x389 +1 x397 >= 1 ;
+1 x8 +1 x16 +1 x19 +1 x27 +1 x35 +1 x43 +1 x51 +1 x62 +1 x70 +1 x78 +1 x86 +1 x97 +1 x105 +1 x113 +1 x121 +1 x132 +1 x140 +1 x148 +1 x156 +1 x164 +1 x167 +1 x175 +1 x183 +1 x191 +1 x199 +1 x202 +1 x210 +1 x218 +1 x226 +1 x234 +1 x237 +1 x245 +1 x253 +1 x261 +1 x269 +1 x280 +1 x288 +1 x296 +1 x304 +1 x315 +1 x323 +1 x331 +1 x339 +1 x350 +1 x358 +1 x366 +1 x374 +1 x382 +1 x385 +1 x393 >= 1 ;
+1 x8 +1 x16 +1 x24 +1 x35 +1 x43 +1 x51 +1 x59 +1 x67 +1 x75 +1 x83 +1 x86 +1 x94 +1 x102 +1 x110 +1 x118 +1 x126 +1 x134 +1 x142 +1 x145 +1 x153 +1 x161 +1 x169 +1 x177 +1 x185 +1 x193 +1 x204 +1 x212 +1 x220 +1 x228 +1 x236 +1 x244 +1 x252 +1 x263 +1 x271 +1 x279 +1 x287 +1 x295 +1 x303 +1 x311 +1 x322 +1 x330 +1 x338 +1 x346 +1 x354 +1 x362 +1 x370 +1 x373 +1 x381 +1 x389 +1 x397 >= 1 ;
+1 x8 +1 x16 +1 x24 +1 x32 +1 x40 +1 x48 +1 x56 +1 x64 +1 x67 +1 x75 +1 x83 +1 x91 +1 x99 +1 x107 +1 x115 +1 x123 +1 x131 +1 x139 +1 x147 +1 x155 +1 x163 +1 x171 +1 x179 +1 x187 +1 x195 +1 x206 +1 x214 +1 x222 +1 x230 +1 x238 +1 x246 +1 x254 +1 x262 +1 x270 +1 x278 +1 x286 +1 x294 +1 x302 +1 x310 +1 x318 +1 x326 +1 x334 +1 x337 +1 x345 +1 x353 +1 x361 +1 x369 +1 x377 +1 x385 +1 x393 >= 1 ;
+1 x8 +1 x16 +1 x24 +1 x32 +1 x40 +1 x48 +1 x56 +1 x64 +1 x72 +1 x80 +1 x88 +1 x96 +1 x104 +1 x112 +1 x120 +1 x128 +1 x136 +1 x144 +1 x152 +1 x160 +1 x168 +1 x176 +1 x184 +1 x192 +1 x200 +1 x205 +1 x213 +1 x221 +1 x229 +1 x237 +1 x245 +1 x253 +1 x261 +1 x269 +1 x277 +1 x285 +1 x293 +1 x301 +1 x309 +1 x317 +1 x325 +1 x333 +1 x341 +1 x349 +1 x357 +1 x365 +1 x373 +1 x381 +1 x389 +1 x397 >= 1 ;
+1 x8 +1 x16 +1 x24 +1 x32 +1 x40 +1 x45 +1 x53 +1 x61 +1 x69 +1 x77 +1 x85 +1 x93 +1 x101 +1 x109 +1 x117 +1 x122 +1 x130 +1 x138 +1 x146 +1 x154 +1 x162 +1 x170 +1 x178 +1 x186 +1 x194 +1 x207 +1 x215 +1 x223 +1 x231 +1 x239 +1 x247 +1 x255 +1 x263 +1 x271 +1 x279 +1 x284 +1 x292 +1 x300 +1 x308 +1 x316 +1 x324 +1 x332 +1 x340 +1 x348 +1 x356 +1 x361 +1 x369 +1 x377 +1 x385 +1 x393 >= 1 ;
+1 x8 +1 x16 +1 x29 +1 x37 +1 x45 +1 x53 +1 x61 +1 x74 +1 x82 +1 x90 +1 x98 +1 x106 +1 x119 +1 x127 +1 x135 +1 x143 +1 x151 +1 x156 +1 x164 +1 x172 +1 x180 +1 x188 +1 x196 +1 x201 +1 x209 +1 x217 +1 x225 +1 x233 +1 x241 +1 x246 +1 x254 +1 x262 +1 x270 +1 x278 +1 x286 +1 x291 +1 x299 +1 x307 +1 x315 +1 x323 +1 x331 +1 x336 +1 x344 +1 x352 +1 x360 +1 x368 +1 x376 +1 x381 +1 x389 +1 x397 >= 1 ;
+1 x8 +1 x21 +1 x29 +1 x37 +1 x45 +1 x50 +1 x58 +1 x66 +1 x74 +1 x79 +1 x87 +1 x95 +1 x103 +1 x108 +1 x116 +1 x124 +1 x132 +1 x145 +1 x153 +1 x161 +1 x169 +1 x174 +1 x182 +1 x190 +1 x198 +1 x203 +1 x211 +1 x219 +1 x227 +1 x232 +1 x240 +1 x248 +1 x256 +1 x269 +1 x277 +1 x285 +1 x293 +1 x298 +1 x306 +1 x314 +1 x322 +1 x327 +1 x335 +1 x343 +1 x351 +1 x356 +1 x364 +1 x372 +1 x380 +1 x393 >= 1 ;
+1 x8 +1 x13 +1 x21 +1 x29 +1 x42 +1 x50 +1 x58 +1 x63 +1 x71 +1 x79 +1 x84 +1 x92 +1 x100 +1 x113 +1 x121 +1 x129 +1 x134 +1 x142 +1 x150 +1 x155 +1 x163 +1 x171 +1 x184 +1 x192 +1 x200 +1 x205 +1 x213 +1 x221 +1 x226 +1 x234 +1 x242 +1 x255 +1 x263 +1 x271 +1 x276 +1 x284 +1 x292 +1 x297 +1 x305 +1 x313 +1 x326 +1 x334 +1 x342 +1 x347 +1 x355 +1 x363 +1 x368 +1 x376 +1 x384 +1 x397 >= 1 ;
+1 x8 +1 x13 +1 x21 +1 x34 +1 x42 +1 x55 +1 x63 +1 x68 +1 x76 +1 x84 +1 x89 +1 x97 +1 x105 +1 x110 +1 x118 +1 x131 +1 x139 +1 x144 +1 x152 +1 x160 +1 x165 +1 x173 +1 x181 +1 x186 +1 x194 +1 x207 +1 x215 +1 x220 +1 x228 +1 x236 +1 x241 +1 x249 +1 x257 +1 x262 +1 x270 +1 x283 +1 x291 +1 x296 +1 x304 +1 x312 +1 x317 +1 x325 +1 x333 +1 x338 +1 x346 +1 x359 +1 x367 +1 x380 +1 x388 +1 x393 >= 1 ;
+1 x8 +1 x13 +1 x21 +1 x26 +1 x34 +1 x47 +1 x55 +1 x60 +1 x68 +1 x73 +1 x81 +1 x94 +1 x102 +1 x107 +1 x115 +1 x128 +1 x136 +1 x141 +1 x149 +1 x154 +1 x162 +1 x175 +1 x183 +1 x188 +1 x196 +1 x201 +1 x209 +1 x222 +1 x230 +1 x235 +1 x243 +1 x256 +1 x264 +1 x269 +1 x277 +1 x282 +1 x290 +1 x303 +1 x311 +1 x316 +1 x324 +1 x329 +1 x337 +1 x350 +1 x358 +1 x363 +1 x371 +1 x384 +1 x392 +1 x397 >= 1 ;
+1 x13 +1 x26 +1 x34 +1 x39 +1 x47 +1 x52 +1 x60 +1 x65 +1 x73 +1 x78 +1 x86 +1 x91 +1 x99 +1 x104 +1 x112 +1 x125 +1 x138 +1 x151 +1 x159 +1 x164 +1 x172 +1 x177 +1 x185 +1 x190 +1 x198 +1 x203 +1 x211 +1 x216 +1 x224 +1 x229 +1 x237 +1 x242 +1 x250 +1 x263 +1 x276 +1 x289 +1 x297 +1 x302 +1 x310 +1 x315 +1 x323 +1 x328 +1 x336 +1 x341 +1 x349 +1 x354 +1 x362 +1 x367 +1 x375 +1 x388 >= 1 ;
+1 x13 +1 x26 +1 x31 +1 x39 +1 x44 +1 x52 +1 x57 +1 x65 +1 x70 +1 x78 +1 x83 +1 x91 +1 x96 +1 x109 +1 x122 +1 x135 +1 x140 +1 x148 +1 x153 +1 x161 +1 x166 +1 x174 +1 x179 +1 x187 +1 x192 +1 x200 +1 x205 +1 x218 +1 x231 +1 x244 +1 x257 +1 x262 +1 x270 +1 x275 +1 x283 +1 x288 +1 x296 +1 x301 +1 x309 +1 x314 +1 x322 +1 x327 +1 x340 +1 x353 +1 x366 +1 x371 +1 x379 +1 x384 +1 x392 +1 x397 >= 1 ;
+1 x13 +1 x18 +1 x26 +1 x31 +1 x44 +1 x49 +1 x57 +1 x62 +1 x70 +1 x75 +1 x88 +1 x93 +1 x101 +1 x106 +1 x119 +1 x132 +1 x137 +1 x145 +1 x150 +1 x163 +1 x168 +1 x176 +1 x181 +1 x189 +1 x194 +1 x207 +1 x212 +1 x220 +1 x225 +1 x233 +1 x238 +1 x251 +1 x256 +1 x264 +1 x269 +1 x282 +1 x295 +1 x300 +1 x308 +1 x313 +1 x326 +1 x331 +1 x339 +1 x344 +1 x352 +1 x357 +1 x370 +1 x375 +1 x383 +1 x388 >= 1 ;
+1 x5 +1 x13 +1 x18 +1 x31 +1 x36 +1 x44 +1 x49 +1 x54 +1 x62 +1 x67 +1 x80 +1 x85 +1 x98 +1 x103 +1 x111 +1 x116 +1 x129 +1 x134 +1 x147 +1 x152 +1 x160 +1 x165 +1 x178 +1 x183 +1 x196 +1 x201 +1 x209 +1 x214 +1 x227 +1 x232 +1 x245 +1 x250 +1 x258 +1 x263 +1 x276 +1 x281 +1 x294 +1 x299 +1 x307 +1 x312 +1 x325 +1 x330 +1 x343 +1 x348 +1 x356 +1 x361 +1 x374 +1 x379 +1 x392 +1 x397 >= 1 ;
+1 x5 +1 x13 +1 x18 +1 x23 +1 x31 +1 x36 +1 x41 +1 x49 +1 x54 +1 x59 +1 x72 +1 x77 +1 x90 +1 x95 +1 x108 +1 x113 +1 x126 +1 x131 +1 x144 +1 x149 +1 x162 +1 x167 +1 x180 +1 x185 +1 x198 +1 x203 +1 x216 +1 x221 +1 x234 +1 x239 +1 x252 +1 x257 +1 x270 +1 x275 +1 x288 +1 x293 +1 x306 +1 x311 +1 x324 +1 x329 +1 x342 +1 x347 +1 x352 +1 x360 +1 x365 +1 x370 +1 x378 +1 x383 +1 x388 +1 x396 >= 1 ;
+1 x5 +1 x18 +1 x23 +1 x36 +1 x41 +1 x46 +1 x59 +1 x64 +1 x77 +1 x82 +1 x87 +1 x100 +1 x105 +1 x118 +1 x123 +1 x128 +1 x141 +1 x146 +1 x159 +1 x164 +1 x169 +1 x182 +1 x187 +1 x200 +1 x205 +1 x210 +1 x223 +1 x228 +1 x241 +1 x246 +1 x251 +1 x264 +1 x269 +1 x282 +1 x287 +1 x292 +1 x305 +1 x310 +1 x323 +1 x328 +1 x333 +1 x346 +1 x351 +1 x356 +1 x364 +1 x369 +1 x374 +1 x387 +1 x392 +1 x397 >= 1 ;
+1 x5 +1 x18 +1 x23 +1 x28 +1 x41 +1 x46 +1 x51 +1 x64 +1 x69 +1 x74 +1 x87 +1 x92 +1 x97 +1 x115 +1 x120 +1 x125 +1 x138 +1 x143 +1 x148 +1 x161 +1 x166 +1 x171 +1 x184 +1 x189 +1 x194 +1 x207 +1 x212 +1 x217 +1 x230 +1 x235 +1 x240 +1 x253 +1 x258 +1 x263 +1 x276 +1 x281 +1 x286 +1 x304 +1 x309 +1 x314 +1 x327 +1 x332 +1 x337 +1 x350 +1 x355 +1 x360 +1 x373 +1 x378 +1 x383 +1 x396 >= 1 ;
+1 x5 +1 x23 +1 x28 +1 x33 +1 x51 +1 x56 +1 x61 +1 x79 +1 x84 +1 x89 +1 x102 +1 x107 +1 x112 +1 x117 +1 x130 +1 x135 +1 x140 +1 x145 +1 x158 +1 x163 +1 x168 +1 x173 +1 x186 +1 x191 +1 x196 +1 x201 +1 x214 +1 x219 +1 x224 +1 x229 +1 x242 +1 x247 +1 x252 +1 x257 +1 x270 +1 x275 +1 x280 +1 x285 +1 x298 +1 x303 +1 x308 +1 x326 +1 x331 +1 x336 +1 x354 +1 x359 +1 x364 +1 x382 +1 x387 +1 x392 >= 1 ;
+1 x5 +1 x10 +1 x23 +1 x28 +1 x33 +1 x38 +1 x43 +1 x61 +1 x66 +1 x71 +1 x76 +1 x94 +1 x99 +1 x104 +1 x109 +1 x127 +1 x132 +1 x137 +1 x142 +1 x160 +1 x165 +1 x170 +1 x175 +1 x193 +1 x198 +1 x203 +1 x208 +1 x226 +1 x231 +1 x236 +1 x241 +1 x259 +1 x264 +1 x269 +1 x274 +1 x292 +1 x297 +1 x302 +1 x307 +1 x325 +1 x330 +1 x335 +1 x340 +1 x358 +1 x363 +1 x368 +1 x373 +1 x378 +1 x391 +1 x396 >= 1 ;
+1 x5 +1 x10 +1 x33 +1 x38 +1 x43 +1 x48 +1 x53 +1 x76 +1 x81 +1 x86 +1 x91 +1 x96 +1 x114 +1 x119 +1 x124 +1 x129 +1 x134 +1 x139 +1 x157 +1 x162 +1 x167 +1 x172 +1 x177 +1 x182 +1 x200 +1 x205 +1 x210 +1 x215 +1 x220 +1 x243 +1 x248 +1 x253 +1 x258 +1 x263 +1 x286 +1 x291 +1 x296 +1 x301 +1 x306 +1 x329 +1 x334 +1 x339 +1 x344 +1 x349 +1 x367 +1 x372 +1 x377 +1 x382 +1 x387 +1 x392 >= 1 ;
+1 x5 +1 x10 +1 x15 +1 x43 +1 x48 +1 x53 +1 x58 +1 x63 +1 x68 +1 x73 +1 x101 +1 x106 +1 x111 +1 x116 +1 x121 +1 x126 +1 x131 +1 x154 +1 x159 +1 x164 +1 x169 +1 x174 +1 x179 +1 x184 +1 x189 +1 x212 +1 x217 +1 x222 +1 x227 +1 x232 +1 x237 +1 x242 +1 x247 +1 x270 +1 x275 +1 x280 +1 x285 +1 x290 +1 x295 +1 x300 +1 x328 +1 x333 +1 x338 +1 x343 +1 x348 +1 x353 +1 x358 +1 x386 +1 x391 +1 x396 >= 1 ;
+1 x5 +1 x10 +1 x15 +1 x20 +1 x25 +1 x63 +1 x68 +1 x73 +1 x78 +1 x83 +1 x88 +1 x93 +1 x98 +1 x103 +1 x108 +1 x113 +1 x151 +1 x156 +1 x161 +1 x166 +1 x171 +1 x176 +1 x181 +1 x186 +1 x191 +1 x196 +1 x201 +1 x206 +1 x244 +1 x249 +1 x254 +1 x259 +1 x264 +1 x269 +1 x274 +1 x279 +1 x284 +1 x289 +1 x294 +1 x332 +1 x337 +1 x342 +1 x347 +1 x352 +1 x357 +1 x362 +1 x367 +1 x372 +1 x377 +1 x382 >= 1 ;
+1 x5 +1 x10 +1 x15 +1 x20 +1 x25 +1 x30 +1 x35 +1 x40 +1 x45 +1 x50 +1 x55 +1 x60 +1 x138 +1 x143 +1 x148 +1 x153 +1 x158 +1 x163 +1 x168 +1 x173 +1 x178 +1 x183 +1 x188 +1 x193 +1 x198 +1 x203 +1 x208 +1 x213 +1 x218 +1 x223 +1 x228 +1 x233 +1 x238 +1 x243 +1 x248 +1 x253 +1 x258 +1 x263 +1 x341 +1 x346 +1 x351 +1 x356 +1 x361 +1 x366 +1 x371 +1 x376 +1 x381 +1 x386 +1 x391 +1 x396 >= 1 ;
+1 x5 +1 x10 +1 x15 +1 x20 +1 x25 +1 x30 +1 x35 +1 x40 +1 x45 +1 x50 +1 x55 +1 x60 +1 x65 +1 x70 +1 x75 +1 x80 +1 x85 +1 x90 +1 x95 +1 x100 +1 x105 +1 x110 +1 x115 +1 x120 +1 x125 +1 x130 +1 x135 +1 x140 +1 x145 +1 x150 +1 x155 +1 x160 +1 x165 +1 x170 +1 x175 +1 x180 +1 x185 +1 x190 +1 x195 +1 x200 +1 x205 +1 x210 +1 x215 +1 x220 +1 x225 +1 x230 +1 x235 +1 x240 +1 x245 +1 x250 >= 1 ;
+1 x5 +1 x10 +1 x15 +1 x20 +1 x25 +1 x30 +1 x35 +1 x40 +1 x92 +1 x97 +1 x102 +1 x107 +1 x112 +1 x117 +1 x122 +1 x127 +1 x132 +1 x137 +1 x142 +1 x147 +1 x152 +1 x157 +1 x162 +1 x167 +1 x172 +1 x229 +1 x234 +1 x239 +1 x244 +1 x249 +1 x254 +1 x259 +1 x264 +1 x269 +1 x274 +1 x279 +1 x284 +1 x289 +1 x294 +1 x299 +1 x304 +1 x309 +1 x361 +1 x366 +1 x371 +1 x376 +1 x381 +1 x386 +1 x391 +1 x396 >= 1 ;
+1 x5 +1 x10 +1 x15 +1 x20 +1 x52 +1 x57 +1 x62 +1 x67 +1 x72 +1 x77 +1 x82 +1 x87 +1 x92 +1 x124 +1 x129 +1 x134 +1 x139 +1 x144 +1 x149 +1 x154 +1 x159 +1 x164 +1 x196 +1 x201 +1 x206 +1 x211 +1 x216 +1 x221 +1 x226 +1 x231 +1 x236 +1 x241 +1 x273 +1 x278 +1 x283 +1 x288 +1 x293 +1 x298 +1 x303 +1 x308 +1 x313 +1 x345 +1 x350 +1 x355 +1 x360 +1 x365 +1 x370 +1 x375 +1 x380 +1 x385 >= 1 ;
+1 x5 +1 x10 +1 x15 +1 x37 +1 x42 +1 x47 +1 x52 +1 x57 +1 x62 +1 x89 +1 x94 +1 x99 +1 x104 +1 x109 +1 x114 +1 x136 +1 x141 +1 x146 +1 x151 +1 x156 +1 x161 +1 x166 +1 x188 +1 x193 +1 x198 +1 x203 +1 x208 +1 x213 +1 x235 +1 x240 +1 x245 +1 x250 +1 x255 +1 x260 +1 x265 +1 x287 +1 x292 +1 x297 +1 x302 +1 x307 +1 x312 +1 x339 +1 x344 +1 x349 +1 x354 +1 x359 +1 x364 +1 x386 +1 x391 +1 x396 >= 1 ;
+1 x5 +1 x10 +1 x27 +1 x32 +1 x37 +1 x42 +1 x47 +1 x69 +1 x74 +1 x79 +1 x84 +1 x106 +1 x111 +1 x116 +1 x121 +1 x126 +1 x143 +1 x148 +1 x153 +1 x158 +1 x163 +1 x180 +1 x185 +1 x190 +1 x195 +1 x200 +1 x222 +1 x227 +1 x232 +1 x237 +1 x259 +1 x264 +1 x269 +1 x274 +1 x279 +1 x296 +1 x301 +1 x306 +1 x311 +1 x316 +1 x333 +1 x338 +1 x343 +1 x348 +1 x353 +1 x370 +1 x375 +1 x380 +1 x385 +1 x390 >= 1 ;
+1 x5 +1 x22 +1 x27 +1 x32 +1 x37 +1 x54 +1 x59 +1 x64 +1 x69 +1 x86 +1 x91 +1 x96 +1 x101 +1 x118 +1 x123 +1 x128 +1 x133 +1 x145 +1 x150 +1 x155 +1 x160 +1 x177 +1 x182 +1 x187 +1 x192 +1 x209 +1 x214 +1 x219 +1 x224 +1 x241 +1 x246 +1 x251 +1 x256 +1 x268 +1 x273 +1 x278 +1 x283 +1 x300 +1 x305 +1 x310 +1 x315 +1 x332 +1 x337 +1 x342 +1 x347 +1 x364 +1 x369 +1 x374 +1 x379 +1 x396 >= 1 ;
+1 x5 +1 x22 +1 x27 +1 x32 +1 x44 +1 x49 +1 x54 +1 x59 +1 x71 +1 x76 +1 x81 +1 x98 +1 x103 +1 x108 +1 x125 +1 x130 +1 x135 +1 x152 +1 x157 +1 x162 +1 x174 +1 x179 +1 x184 +1 x189 +1 x201 +1 x206 +1 x211 +1 x228 +1 x233 +1 x238 +1 x255 +1 x260 +1 x265 +1 x277 +1 x282 +1 x287 +1 x292 +1 x304 +1 x309 +1 x314 +1 x331 +1 x336 +1 x341 +1 x358 +1 x363 +1 x368 +1 x380 +1 x385 +1 x390 +1 x395 >= 1 ;
+1 x5 +1 x17 +1 x22 +1 x27 +1 x39 +1 x44 +1 x49 +1 x61 +1 x66 +1 x71 +1 x83 +1 x88 +1 x93 +1 x105 +1 x110 +1 x115 +1 x127 +1 x132 +1 x137 +1 x149 +1 x154 +1 x159 +1 x176 +1 x181 +1 x198 +1 x203 +1 x220 +1 x225 +1 x242 +1 x247 +1 x252 +1 x264 +1 x269 +1 x274 +1 x286 +1 x291 +1 x296 +1 x308 +1 x313 +1 x318 +1 x330 +1 x335 +1 x340 +1 x352 +1 x357 +1 x362 +1 x374 +1 x379 +1 x384 +1 x396 >= 1 ;
+1 x5 +1 x17 +1 x22 +1 x34 +1 x39 +1 x44 +1 x56 +1 x61 +1 x73 +1 x78 +1 x83 +1 x95 +1 x100 +1 x112 +1 x117 +1 x122 +1 x134 +1 x139 +1 x151 +1 x156 +1 x161 +1 x173 +1 x178 +1 x190 +1 x195 +1 x200 +1 x212 +1 x217 +1 x229 +1 x234 +1 x239 +1 x251 +1 x256 +1 x268 +1 x273 +1 x278 +1 x290 +1 x295 +1 x307 +1 x312 +1 x317 +1 x329 +1 x334 +1 x346 +1 x351 +1 x356 +1 x368 +1 x373 +1 x390 +1 x395 >= 1 ;
+1 x5 +1 x12 +1 x17 +1 x22 +1 x34 +1 x39 +1 x51 +1 x56 +1 x68 +1 x73 +1 x85 +1 x90 +1 x102 +1 x107 +1 x119 +1 x124 +1 x136 +1 x141 +1 x153 +1 x158 +1 x170 +1 x175 +1 x187 +1 x192 +1 x197 +1 x204 +1 x209 +1 x214 +1 x226 +1 x231 +1 x243 +1 x248 +1 x260 +1 x265 +1 x277 +1 x282 +1 x294 +1 x299 +1 x311 +1 x316 +1 x328 +1 x333 +1 x345 +1 x350 +1 x362 +1 x367 +1 x379 +1 x384 +1 x389 +1 x396 >= 1 ;
+1 x12 +1 x17 +1 x29 +1 x34 +1 x46 +1 x51 +1 x58 +1 x63 +1 x75 +1 x80 +1 x92 +1 x97 +1 x109 +1 x114 +1 x121 +1 x126 +1 x138 +1 x143 +1 x155 +1 x160 +1 x172 +1 x177 +1 x184 +1 x189 +1 x201 +1 x206 +1 x218 +1 x223 +1 x235 +1 x240 +1 x247 +1 x252 +1 x264 +1 x269 +1 x281 +1 x286 +1 x298 +1 x303 +1 x310 +1 x315 +1 x327 +1 x332 +1 x344 +1 x349 +1 x361 +1 x366 +1 x373 +1 x378 +1 x390 +1 x395 >= 1 ;
+1 x12 +1 x17 +1 x29 +1 x41 +1 x46 +1 x53 +1 x58 +1 x70 +1 x75 +1 x82 +1 x87 +1 x99 +1 x104 +1 x111 +1 x116 +1 x128 +1 x133 +1 x140 +1 x145 +1 x157 +1 x162 +1 x169 +1 x174 +1 x186 +1 x198 +1 x203 +1 x215 +1 x227 +1 x232 +1 x239 +1 x244 +1 x256 +1 x261 +1 x268 +1 x273 +1 x285 +1 x290 +1 x297 +1 x302 +1 x314 +1 x319 +1 x326 +1 x331 +1 x343 +1 x348 +1 x355 +1 x360 +1 x372 +1 x384 +1 x389 >= 1 ;
+1 x12 +1 x17 +1 x24 +1 x29 +1 x36 +1 x41 +1 x53 +1 x65 +1 x77 +1 x82 +1 x89 +1 x94 +1 x106 +1 x118 +1 x130 +1 x135 +1 x142 +1 x147 +1 x154 +1 x159 +1 x171 +1 x183 +1 x188 +1 x195 +1 x200 +1 x207 +1 x212 +1 x224 +1 x236 +1 x248 +1 x253 +1 x260 +1 x265 +1 x272 +1 x277 +1 x289 +1 x301 +1 x306 +1 x313 +1 x318 +1 x325 +1 x330 +1 x342 +1 x354 +1 x359 +1 x366 +1 x371 +1 x378 +1 x383 +1 x395 >= 1 ;
+1 x12 +1 x24 +1 x36 +1 x48 +1 x60 +1 x72 +1 x84 +1 x96 +1 x101 +1 x108 +1 x113 +1 x120 +1 x125 +1 x132 +1 x137 +1 x144 +1 x149 +1 x156 +1 x161 +1 x168 +1 x173 +1 x180 +1 x185 +1 x192 +1 x197 +1 x204 +1 x209 +1 x216 +1 x221 +1 x228 +1 x233 +1 x240 +1 x245 +1 x252 +1 x257 +1 x264 +1 x269 +1 x276 +1 x281 +1 x288 +1 x293 +1 x300 +1 x305 +1 x317 +1 x329 +1 x341 +1 x353 +1 x365 +1 x377 +1 x389 >= 1 ;
+1 x12 +1 x24 +1 x31 +1 x36 +1 x43 +1 x48 +1 x55 +1 x60 +1 x67 +1 x79 +1 x91 +1 x103 +1 x110 +1 x115 +1 x122 +1 x127 +1 x134 +1 x139 +1 x146 +1 x158 +1 x170 +1 x182 +1 x189 +1 x194 +1 x201 +1 x206 +1 x213 +1 x218 +1 x225 +1 x237 +1 x249 +1 x261 +1 x268 +1 x273 +1 x280 +1 x285 +1 x292 +1 x297 +1 x304 +1 x316 +1 x328 +1 x340 +1 x347 +1 x352 +1 x359 +1 x364 +1 x371 +1 x376 +1 x383 +1 x395 >= 1 ;
+1 x12 +1 x19 +1 x24 +1 x31 +1 x43 +1 x50 +1 x55 +1 x62 +1 x74 +1 x86 +1 x93 +1 x98 +1 x105 +1 x117 +1 x124 +1 x129 +1 x136 +1 x148 +1 x155 +1 x160 +1 x167 +1 x172 +1 x179 +1 x191 +1 x198 +1 x203 +1 x210 +1 x222 +1 x229 +1 x234 +1 x241 +1 x246 +1 x253 +1 x265 +1 x272 +1 x277 +1 x284 +1 x296 +1 x303 +1 x308 +1 x315 +1 x327 +1 x339 +1 x346 +1 x351 +1 x358 +1 x370 +1 x377 +1 x382 +1 x389 >= 1 ;
+1 x7 +1 x12 +1 x19 +1 x31 +1 x38 +1 x50 +1 x57 +1 x62 +1 x69 +1 x81 +1 x88 +1 x100 +1 x107 +1 x112 +1 x119 +1 x126 +1 x131 +1 x138 +1 x150 +1 x157 +1 x169 +1 x176 +1 x181 +1 x188 +1 x195 +1 x200 +1 x207 +1 x219 +1 x226 +1 x238 +1 x245 +1 x250 +1 x257 +1 x269 +1 x276 +1 x288 +1 x295 +1 x300 +1 x307 +1 x314 +1 x319 +1 x326 +1 x338 +1 x345 +1 x357 +1 x364 +1 x369 +1 x376 +1 x388 +1 x395 >= 1 ;
+1 x7 +1 x12 +1 x19 +1 x26 +1 x38 +1 x45 +1 x57 +1 x64 +1 x76 +1 x83 +1 x95 +1 x102 +1 x109 +1 x114 +1 x121 +1 x128 +1 x133 +1 x140 +1 x147 +1 x152 +1 x159 +1 x166 +1 x178 +1 x185 +1 x197 +1 x204 +1 x216 +1 x223 +1 x235 +1 x242 +1 x249 +1 x254 +1 x261 +1 x268 +1 x273 +1 x280 +1 x287 +1 x292 +1 x299 +1 x306 +1 x318 +1 x325 +1 x337 +1 x344 +1 x356 +1 x363 +1 x375 +1 x382 +1 x389 +1 x394 >= 1 ;
+1 x7 +1 x19 +1 x26 +1 x33 +1 x38 +1 x45 +1 x52 +1 x59 +1 x64 +1 x71 +1 x78 +1 x90 +1 x97 +1 x104 +1 x116 +1 x123 +1 x130 +1 x142 +1 x149 +1 x156 +1 x161 +1 x168 +1 x175 +1 x187 +1 x194 +1 x201 +1 x213 +1 x220 +1 x227 +1 x239 +1 x246 +1 x253 +1 x258 +1 x265 +1 x272 +1 x284 +1 x291 +1 x298 +1 x310 +1 x317 +1 x324 +1 x336 +1 x343 +1 x350 +1 x355 +1 x362 +1 x369 +1 x381 +1 x388 +1 x395 >= 1 ;
+1 x7 +1 x19 +1 x26 +1 x33 +1 x40 +1 x52 +1 x59 +1 x66 +1 x73 +1 x85 +1 x92 +1 x99 +1 x106 +1 x111 +1 x118 +1 x125 +1 x132 +1 x144 +1 x151 +1 x158 +1 x165 +1 x177 +1 x184 +1 x191 +1 x198 +1 x203 +1 x210 +1 x217 +1 x224 +1 x236 +1 x243 +1 x250 +1 x257 +1 x269 +1 x276 +1 x283 +1 x290 +1 x295 +1 x302 +1 x309 +1 x316 +1 x328 +1 x335 +1 x342 +1 x349 +1 x361 +1 x368 +1 x375 +1 x382 +1 x394 >= 1 ;
+1 x7 +1 x14 +1 x26 +1 x33 +1 x40 +1 x47 +1 x54 +1 x66 +1 x73 +1 x80 +1 x87 +1 x94 +1 x101 +1 x113 +1 x120 +1 x127 +1 x134 +1 x141 +1 x153 +1 x160 +1 x167 +1 x174 +1 x181 +1 x193 +1 x200 +1 x207 +1 x214 +1 x221 +1 x228 +1 x240 +1 x247 +1 x254 +1 x261 +1 x268 +1 x280 +1 x287 +1 x294 +1 x301 +1 x308 +1 x320 +1 x327 +1 x334 +1 x341 +1 x348 +1 x355 +1 x367 +1 x374 +1 x381 +1 x388 +1 x395 >= 1 ;
+1 x7 +1 x14 +1 x21 +1 x28 +1 x40 +1 x47 +1 x54 +1 x61 +1 x68 +1 x75 +1 x82 +1 x89 +1 x96 +1 x108 +1 x115 +1 x122 +1 x129 +1 x136 +1 x143 +1 x150 +1 x157 +1 x176 +1 x183 +1 x190 +1 x197 +1 x204 +1 x211 +1 x218 +1 x225 +1 x244 +1 x251 +1 x258 +1 x265 +1 x272 +1 x279 +1 x286 +1 x293 +1 x305 +1 x312 +1 x319 +1 x326 +1 x333 +1 x340 +1 x347 +1 x354 +1 x361 +1 x373 +1 x380 +1 x387 +1 x394 >= 1 ;
+1 x7 +1 x14 +1 x21 +1 x28 +1 x35 +1 x42 +1 x49 +1 x56 +1 x63 +1 x70 +1 x96 +1 x103 +1 x110 +1 x117 +1 x124 +1 x131 +1 x138 +1 x145 +1 x152 +1 x159 +1 x166 +1 x173 +1 x180 +1 x187 +1 x194 +1 x201 +1 x208 +1 x215 +1 x222 +1 x229 +1 x255 +1 x262 +1 x269 +1 x276 +1 x283 +1 x290 +1 x297 +1 x304 +1 x311 +1 x318 +1 x325 +1 x332 +1 x339 +1 x346 +1 x353 +1 x360 +1 x367 +1 x374 +1 x381 +1 x388 >= 1 ;
+1 x7 +1 x14 +1 x21 +1 x28 +1 x35 +1 x42 +1 x49 +1 x56 +1 x63 +1 x70 +1 x77 +1 x84 +1 x91 +1 x98 +1 x105 +1 x112 +1 x119 +1 x126 +1 x133 +1 x140 +1 x147 +1 x154 +1 x161 +1 x168 +1 x175 +1 x226 +1 x233 +1 x240 +1 x247 +1 x254 +1 x261 +1 x268 +1 x275 +1 x282 +1 x289 +1 x296 +1 x303 +1 x310 +1 x317 +1 x324 +1 x331 +1 x338 +1 x345 +1 x352 +1 x359 +1 x366 +1 x373 +1 x380 +1 x387 +1 x394 >= 1 ;
+1 x7 +1 x14 +1 x21 +1 x28 +1 x35 +1 x51 +1 x58 +1 x65 +1 x72 +1 x79 +1 x86 +1 x93 +1 x100 +1 x107 +1 x114 +1 x121 +1 x128 +1 x144 +1 x151 +1 x158 +1 x165 +1 x172 +1 x179 +1 x186 +1 x193 +1 x200 +1 x207 +1 x214 +1 x230 +1 x237 +1 x244 +1 x251 +1 x258 +1 x265 +1 x272 +1 x279 +1 x286 +1 x293 +1 x300 +1 x323 +1 x330 +1 x337 +1 x344 +1 x351 +1 x358 +1 x365 +1 x372 +1 x379 +1 x386 +1 x393 >= 1 ;
+1 x7 +1 x14 +1 x21 +1 x30 +1 x37 +1 x44 +1 x51 +1 x58 +1 x65 +1 x72 +1 x81 +1 x88 +1 x95 +1 x102 +1 x109 +1 x116 +1 x132 +1 x139 +1 x146 +1 x153 +1 x160 +1 x167 +1 x183 +1 x190 +1 x197 +1 x204 +1 x211 +1 x218 +1 x234 +1 x241 +1 x248 +1 x255 +1 x262 +1 x269 +1 x285 +1 x292 +1 x299 +1 x306 +1 x313 +1 x320 +1 x329 +1 x336 +1 x343 +1 x350 +1 x357 +1 x364 +1 x371 +1 x380 +1 x387 +1 x394 >= 1 ;
+1 x7 +1 x14 +1 x23 +1 x30 +1 x37 +1 x44 +1 x60 +1 x67 +1 x74 +1 x81 +1 x90 +1 x97 +1 x104 +1 x111 +1 x118 +1 x127 +1 x134 +1 x141 +1 x148 +1 x164 +1 x171 +1 x178 +1 x185 +1 x194 +1 x201 +1 x208 +1 x215 +1 x222 +1 x231 +1 x238 +1 x245 +1 x252 +1 x259 +1 x268 +1 x275 +1 x282 +1 x289 +1 x305 +1 x312 +1 x319 +1 x326 +1 x335 +1 x342 +1 x349 +1 x356 +1 x363 +1 x372 +1 x379 +1 x386 +1 x393 >= 1 ;
+1 x7 +1 x16 +1 x23 +1 x30 +1 x37 +1 x46 +1 x53 +1 x60 +1 x69 +1 x76 +1 x83 +1 x90 +1 x99 +1 x106 +1 x113 +1 x122 +1 x129 +1 x136 +1 x143 +1 x152 +1 x159 +1 x166 +1 x182 +1 x189 +1 x196 +1 x205 +1 x212 +1 x219 +1 x235 +1 x242 +1 x249 +1 x258 +1 x265 +1 x272 +1 x279 +1 x288 +1 x295 +1 x302 +1 x311 +1 x318 +1 x325 +1 x332 +1 x341 +1 x348 +1 x355 +1 x364 +1 x371 +1 x378 +1 x385 +1 x394 >= 1 ;
+1 x7 +1 x16 +1 x23 +1 x30 +1 x39 +1 x46 +1 x62 +1 x69 +1 x78 +1 x85 +1 x92 +1 x101 +1 x108 +1 x115 +1 x124 +1 x131 +1 x138 +1 x147 +1 x154 +1 x161 +1 x170 +1 x177 +1 x186 +1 x193 +1 x200 +1 x209 +1 x216 +1 x223 +1 x232 +1 x239 +1 x246 +1 x255 +1 x262 +1 x269 +1 x278 +1 x285 +1 x294 +1 x301 +1 x308 +1 x317 +1 x324 +1 x331 +1 x340 +1 x347 +1 x354 +1 x363 +1 x370 +1 x377 +1 x386 +1 x393 >= 1 ;
+1 x7 +1 x16 +1 x23 +1 x32 +1 x39 +1 x48 +1 x55 +1 x62 +1 x71 +1 x78 +1 x87 +1 x94 +1 x103 +1 x110 +1 x117 +1 x126 +1 x133 +1 x142 +1 x149 +1 x158 +1 x165 +1 x172 +1 x181 +1 x188 +1 x197 +1 x204 +1 x213 +1 x220 +1 x229 +1 x236 +1 x243 +1 x252 +1 x259 +1 x268 +1 x275 +1 x284 +1 x291 +1 x298 +1 x307 +1 x314 +1 x323 +1 x330 +1 x339 +1 x346 +1 x353 +1 x362 +1 x369 +1 x378 +1 x385 +1 x394 >= 1 ;
+1 x9 +1 x16 +1 x25 +1 x32 +1 x41 +1 x48 +1 x57 +1 x64 +1 x73 +1 x80 +1 x89 +1 x96 +1 x105 +1 x112 +1 x121 +1 x128 +1 x137 +1 x144 +1 x153 +1 x160 +1 x169 +1 x176 +1 x185 +1 x192 +1 x201 +1 x208 +1 x217 +1 x224 +1 x233 +1 x240 +1 x249 +1 x256 +1 x265 +1 x272 +1 x281 +1 x288 +1 x297 +1 x304 +1 x313 +1 x320 +1 x329 +1 x336 +1 x345 +1 x352 +1 x361 +1 x368 +1 x377 +1 x384 +1 x393 +1 x400 >= 1 ;
+1 x9 +1 x16 +1 x25 +1 x32 +1 x41 +1 x50 +1 x57 +1 x66 +1 x73 +1 x82 +1 x89 +1 x91 +1 x98 +1 x107 +1 x114 +1 x123 +1 x130 +1 x139 +1 x148 +1 x155 +1 x164 +1 x171 +1 x180 +1 x189 +1 x196 +1 x205 +1 x212 +1 x221 +1 x230 +1 x237 +1 x246 +1 x253 +1 x262 +1 x271 +1 x278 +1 x287 +1 x294 +1 x303 +1 x310 +1 x312 +1 x319 +1 x328 +1 x335 +1 x344 +1 x351 +1 x360 +1 x369 +1 x376 +1 x385 +1 x392 >= 1 ;
+1 x9 +1 x16 +1 x25 +1 x34 +1 x41 +1 x50 +1 x59 +1 x66 +1 x75 +1 x84 +1 x91 +1 x100 +1 x109 +1 x116 +1 x118 +1 x125 +1 x134 +1 x141 +1 x143 +1 x150 +1 x159 +1 x168 +1 x175 +1 x184 +1 x193 +1 x200 +1 x209 +1 x218 +1 x225 +1 x234 +1 x243 +1 x250 +1 x259 +1 x268 +1 x275 +1 x284 +1 x293 +1 x300 +1 x309 +1 x318 +1 x325 +1 x334 +1 x343 +1 x350 +1 x359 +1 x368 +1 x375 +1 x384 +1 x393 +1 x400 >= 1 ;
+1 x9 +1 x16 +1 x18 +1 x25 +1 x34 +1 x43 +1 x52 +1 x59 +1 x68 +1 x77 +1 x86 +1 x93 +1 x102 +1 x111 +1 x120 +1 x127 +1 x129 +1 x136 +1 x145 +1 x154 +1 x163 +1 x170 +1 x179 +1 x188 +1 x197 +1 x204 +1 x213 +1 x222 +1 x231 +1 x238 +1 x247 +1 x256 +1 x265 +1 x272 +1 x274 +1 x281 +1 x290 +1 x299 +1 x308 +1 x315 +1 x324 +1 x333 +1 x342 +1 x349 +1 x358 +1 x367 +1 x376 +1 x383 +1 x385 +1 x392 >= 1 ;
+1 x9 +1 x18 +1 x27 +1 x34 +1 x43 +1 x52 +1 x61 +1 x70 +1 x79 +1 x88 +1 x95 +1 x104 +1 x113 +1 x122 +1 x131 +1 x140 +1 x149 +1 x156 +1 x158 +1 x165 +1 x174 +1 x183 +1 x192 +1 x201 +1 x210 +1 x217 +1 x219 +1 x226 +1 x235 +1 x244 +1 x253 +1 x262 +1 x271 +1 x278 +1 x280 +1 x287 +1 x296 +1 x305 +1 x314 +1 x323 +1 x332 +1 x339 +1 x341 +1 x348 +1 x357 +1 x366 +1 x375 +1 x384 +1 x393 +1 x400 >= 1 ;
+1 x9 +1 x18 +1 x27 +1 x36 +1 x45 +1 x54 +1 x63 +1 x72 +1 x81 +1 x88 +1 x90 +1 x97 +1 x99 +1 x106 +1 x108 +1 x115 +1 x124 +1 x133 +1 x142 +1 x151 +1 x160 +1 x169 +1 x178 +1 x187 +1 x196 +1 x205 +1 x214 +1 x223 +1 x232 +1 x241 +1 x250 +1 x259 +1 x268 +1 x277 +1 x286 +1 x293 +1 x295 +1 x302 +1 x304 +1 x311 +1 x313 +1 x320 +1 x329 +1 x338 +1 x347 +1 x356 +1 x365 +1 x374 +1 x383 +1 x392 >= 1 ;
+1 x9 +1 x18 +1 x27 +1 x36 +1 x45 +1 x54 +1 x63 +1 x72 +1 x74 +1 x81 +1 x83 +1 x90 +1 x92 +1 x101 +1 x110 +1 x119 +1 x128 +1 x137 +1 x146 +1 x155 +1 x164 +1 x173 +1 x182 +1 x191 +1 x200 +1 x209 +1 x218 +1 x227 +1 x236 +1 x238 +1 x245 +1 x247 +1 x256 +1 x265 +1 x274 +1 x283 +1 x292 +1 x301 +1 x310 +1 x319 +1 x328 +1 x337 +1 x346 +1 x355 +1 x364 +1 x373 +1 x382 +1 x391 +1 x393 +1 x400 >= 1 ;
+1 x9 +1 x18 +1 x27 +1 x29 +1 x38 +1 x47 +1 x56 +1 x65 +1 x74 +1 x83 +1 x85 +1 x94 +1 x103 +1 x112 +1 x121 +1 x130 +1 x139 +1 x141 +1 x150 +1 x159 +1 x168 +1 x177 +1 x186 +1 x195 +1 x197 +1 x204 +1 x206 +1 x215 +1 x224 +1 x233 +1 x242 +1 x251 +1 x260 +1 x262 +1 x271 +1 x280 +1 x289 +1 x298 +1 x307 +1 x316 +1 x318 +1 x327 +1 x336 +1 x345 +1 x354 +1 x363 +1 x372 +1 x374 +1 x383 +1 x392 >= 1 ;
+1 x9 +1 x18 +1 x20 +1 x29 +1 x38 +1 x47 +1 x58 +1 x67 +1 x76 +1 x85 +1 x87 +1 x96 +1 x105 +1 x114 +1 x123 +1 x125 +1 x134 +1 x143 +1 x152 +1 x163 +1 x172 +1 x181 +1 x190 +1 x192 +1 x201 +1 x210 +1 x219 +1 x228 +1 x230 +1 x239 +1 x248 +1 x257 +1 x268 +1 x277 +1 x286 +1 x295 +1 x297 +1 x306 +1 x315 +1 x324 +1 x333 +1 x335 +1 x344 +1 x353 +1 x362 +1 x364 +1 x373 +1 x382 +1 x391 +1 x400 >= 1 ;
+1 x9 +1 x11 +1 x20 +1 x29 +1 x38 +1 x40 +1 x49 +1 x58 +1 x69 +1 x78 +1 x87 +1 x89 +1 x98 +1 x107 +1 x118 +1 x127 +1 x136 +1 x138 +1 x147 +1 x156 +1 x167 +1 x176 +1 x185 +1 x187 +1 x196 +1 x205 +1 x214 +1 x216 +1 x225 +1 x234 +1 x245 +1 x254 +1 x263 +1 x265 +1 x274 +1 x283 +1 x294 +1 x303 +1 x312 +1 x314 +1 x323 +1 x332 +1 x343 +1 x352 +1 x361 +1 x363 +1 x372 +1 x381 +1 x390 +1 x392 >= 1 ;
+1 x9 +1 x11 +1 x20 +1 x29 +1 x31 +1 x40 +1 x49 +1 x51 +1 x60 +1 x69 +1 x71 +1 x80 +1 x89 +1 x91 +1 x100 +1 x111 +1 x120 +1 x131 +1 x140 +1 x151 +1 x160 +1 x171 +1 x180 +1 x191 +1 x200 +1 x211 +1 x220 +1 x231 +1 x240 +1 x251 +1 x260 +1 x271 +1 x280 +1 x291 +1 x300 +1 x302 +1 x311 +1 x320 +1 x322 +1 x331 +1 x340 +1 x342 +1 x351 +1 x360 +1 x362 +1 x371 +1 x380 +1 x382 +1 x391 +1 x400 >= 1 ;
+1 x9 +1 x11 +1 x20 +1 x31 +1 x40 +1 x42 +1 x51 +1 x62 +1 x71 +1 x73 +1 x82 +1 x93 +1 x102 +1 x104 +1 x113 +1 x124 +1 x133 +1 x144 +1 x153 +1 x155 +1 x164 +1 x175 +1 x184 +1 x186 +1 x195 +1 x206 +1 x215 +1 x217 +1 x226 +1 x237 +1 x246 +1 x248 +1 x257 +1 x268 +1 x277 +1 x288 +1 x297 +1 x299 +1 x308 +1 x319 +1 x328 +1 x330 +1 x339 +1 x350 +1 x359 +1 x361 +1 x370 +1 x381 +1 x390 +1 x392 >= 1 ;
+1 x11 +1 x20 +1 x22 +1 x31 +1 x42 +1 x53 +1 x62 +1 x64 +1 x73 +1 x75 +1 x84 +1 x95 +1 x106 +1 x115 +1 x117 +1 x126 +1 x137 +1 x148 +1 x157 +1 x159 +1 x168 +1 x170 +1 x179 +1 x190 +1 x201 +1 x210 +1 x212 +1 x221 +1 x232 +1 x243 +1 x252 +1 x254 +1 x263 +1 x265 +1 x274 +1 x285 +1 x296 +1 x305 +1 x307 +1 x316 +1 x327 +1 x338 +1 x347 +1 x349 +1 x358 +1 x360 +1 x369 +1 x380 +1 x391 +1 x400 >= 1 ;
+1 x11 +1 x22 +1 x33 +1 x42 +1 x44 +1 x53 +1 x55 +1 x64 +1 x66 +1 x75 +1 x77 +1 x86 +1 x88 +1 x97 +1 x108 +1 x119 +1 x130 +1 x141 +1 x152 +1 x163 +1 x174 +1 x183 +1 x185 +1 x194 +1 x196 +1 x205 +1 x207 +1 x216 +1 x218 +1 x227 +1 x238 +1 x249 +1 x260 +1 x271 +1 x282 +1 x293 +1 x304 +1 x313 +1 x315 +1 x324 +1 x326 +1 x335 +1 x337 +1 x346 +1 x348 +1 x357 +1 x359 +1 x368 +1 x379 +1 x390 >= 1 ;
+1 x11 +1 x22 +1 x33 +1 x44 +1 x55 +1 x57 +1 x66 +1 x68 +1 x77 +1 x79 +1 x88 +1 x90 +1 x99 +1 x101 +1 x110 +1 x112 +1 x123 +1 x134 +1 x145 +1 x156 +1 x167 +1 x178 +1 x189 +1 x200 +1 x211 +1 x213 +1 x222 +1 x224 +1 x233 +1 x235 +1 x244 +1 x246 +1 x255 +1 x257 +1 x266 +1 x268 +1 x279 +1 x290 +1 x301 +1 x312 +1 x323 +1 x334 +1 x345 +1 x356 +1 x367 +1 x378 +1 x380 +1 x389 +1 x391 +1 x400 >= 1 ;
+1 x11 +1 x22 +1 x24 +1 x33 +1 x35 +1 x46 +1 x57 +1 x68 +1 x70 +1 x79 +1 x81 +1 x92 +1 x103 +1 x114 +1 x116 +1 x125 +1 x127 +1 x138 +1 x149 +1 x160 +1 x171 +1 x173 +1 x182 +1 x184 +1 x195 +1 x206 +1 x217 +1 x219 +1 x228 +1 x230 +1 x241 +1 x252 +1 x263 +1 x274 +1 x276 +1 x285 +1 x287 +1 x298 +1 x309 +1 x320 +1 x322 +1 x331 +1 x333 +1 x344 +1 x355 +1 x366 +1 x368 +1 x377 +1 x379 +1 x390 >= 1 ;
+1 x11 +1 x13 +1 x24 +1 x35 +1 x46 +1 x48 +1 x59 +1 x70 +1 x72 +1 x83 +1 x94 +1 x105 +1 x107 +1 x118 +1 x129 +1 x131 +1 x142 +1 x153 +1 x164 +1 x166 +1 x177 +1 x188 +1 x190 +1 x201 +1 x212 +1 x223 +1 x225 +1 x236 +1 x247 +1 x249 +1 x258 +1 x260 +1 x271 +1 x282 +1 x284 +1 x295 +1 x306 +1 x308 +1 x317 +1 x319 +1 x330 +1 x341 +1 x343 +1 x354 +1 x365 +1 x367 +1 x376 +1 x378 +1 x389 +1 x400 >= 1 ;
+1 x11 +1 x13 +1 x24 +1 x35 +1 x37 +1 x48 +1 x50 +1 x61 +1 x72 +1 x74 +1 x85 +1 x96 +1 x98 +1 x109 +1 x120 +1 x122 +1 x133 +1 x135 +1 x146 +1 x157 +1 x159 +1 x170 +1 x181 +1 x183 +1 x194 +1 x207 +1 x218 +1 x220 +1 x231 +1 x242 +1 x244 +1 x255 +1 x266 +1 x268 +1 x279 +1 x281 +1 x292 +1 x303 +1 x305 +1 x316 +1 x327 +1 x329 +1 x340 +1 x351 +1 x353 +1 x364 +1 x366 +1 x377 +1 x388 +1 x390 >= 1 ;
+1 x11 +1 x13 +1 x24 +1 x26 +1 x37 +1 x39 +1 x50 +1 x63 +1 x74 +1 x76 +1 x87 +1 x89 +1 x100 +1 x113 +1 x124 +1 x126 +1 x137 +1 x139 +1 x150 +1 x163 +1 x174 +1 x176 +1 x187 +1 x189 +1 x200 +1 x202 +1 x213 +1 x224 +1 x226 +1 x237 +1 x239 +1 x250 +1 x252 +1 x263 +1 x276 +1 x287 +1 x289 +1 x300 +1 x302 +1 x313 +1 x326 +1 x337 +1 x339 +1 x350 +1 x352 +1 x363 +1 x376 +1 x387 +1 x389 +1 x400 >= 1 ;
+1 x13 +1 x26 +1 x39 +1 x52 +1 x65 +1 x76 +1 x78 +1 x89 +1 x91 +1 x102 +1 x104 +1 x115 +1 x117 +1 x128 +1 x130 +1 x141 +1 x143 +1 x154 +1 x156 +1 x167 +1 x169 +1 x180 +1 x182 +1 x193 +1 x195 +1 x206 +1 x208 +1 x219 +1 x221 +1 x232 +1 x234 +1 x245 +1 x247 +1 x258 +1 x260 +1 x271 +1 x273 +1 x284 +1 x286 +1 x297 +1 x299 +1 x310 +1 x312 +1 x323 +1 x325 +1 x336 +1 x349 +1 x362 +1 x375 +1 x388 >= 1 ;
+1 x13 +1 x15 +1 x26 +1 x28 +1 x39 +1 x41 +1 x52 +1 x54 +1 x67 +1 x80 +1 x93 +1 x95 +1 x106 +1 x108 +1 x119 +1 x121 +1 x132 +1 x134 +1 x147 +1 x160 +1 x162 +1 x173 +1 x175 +1 x186 +1 x188 +1 x199 +1 x201 +1 x214 +1 x227 +1 x240 +1 x242 +1 x253 +1 x255 +1 x266 +1 x268 +1 x281 +1 x294 +1 x307 +1 x309 +1 x320 +1 x322 +1 x333 +1 x335 +1 x346 +1 x348 +1 x361 +1 x374 +1 x387 +1 x389 +1 x400 >= 1 ;
+1 x13 +1 x15 +1 x26 +1 x28 +1 x41 +1 x43 +1 x54 +1 x56 +1 x69 +1 x82 +1 x84 +1 x97 +1 x110 +1 x112 +1 x123 +1 x125 +1 x138 +1 x140 +1 x151 +1 x153 +1 x166 +1 x179 +1 x181 +1 x192 +1 x194 +1 x207 +1 x209 +1 x220 +1 x222 +1 x235 +1 x248 +1 x250 +1 x261 +1 x263 +1 x276 +1 x278 +1 x289 +1 x291 +1 x304 +1 x317 +1 x319 +1 x332 +1 x345 +1 x347 +1 x358 +1 x360 +1 x373 +1 x375 +1 x386 +1 x388 >= 1 ;
+1 x13 +1 x15 +1 x28 +1 x30 +1 x43 +1 x56 +1 x58 +1 x71 +1 x73 +1 x86 +1 x99 +1 x101 +1 x114 +1 x116 +1 x129 +1 x142 +1 x144 +1 x157 +1 x159 +1 x172 +1 x185 +1 x187 +1 x200 +1 x202 +1 x215 +1 x228 +1 x230 +1 x243 +1 x245 +1 x256 +1 x258 +1 x271 +1 x273 +1 x286 +1 x288 +1 x299 +1 x301 +1 x314 +1 x316 +1 x329 +1 x331 +1 x342 +1 x344 +1 x357 +1 x359 +1 x372 +1 x374 +1 x385 +1 x387 +1 x400 >= 1 ;
+1 x13 +1 x15 +1 x28 +1 x30 +1 x43 +1 x45 +1 x58 +1 x60 +1 x73 +1 x75 +1 x88 +1 x90 +1 x103 +1 x105 +1 x118 +1 x120 +1 x133 +1 x135 +1 x148 +1 x150 +1 x163 +1 x165 +1 x178 +1 x180 +1 x193 +1 x208 +1 x221 +1 x223 +1 x236 +1 x238 +1 x251 +1 x253 +1 x266 +1 x268 +1 x281 +1 x283 +1 x296 +1 x298 +1 x311 +1 x313 +1 x326 +1 x328 +1 x341 +1 x343 +1 x356 +1 x358 +1 x371 +1 x373 +1 x386 +1 x388 >= 1 ;
+1 x15 +1 x17 +1 x30 +1 x32 +1 x45 +1 x47 +1 x60 +1 x62 +1 x77 +1 x79 +1 x92 +1 x94 +1 x107 +1 x109 +1 x122 +1 x124 +1 x137 +1 x139 +1 x154 +1 x156 +1 x169 +1 x171 +1 x184 +1 x186 +1 x199 +1 x201 +1 x214 +1 x216 +1 x231 +1 x233 +1 x246 +1 x248 +1 x261 +1 x263 +1 x276 +1 x278 +1 x293 +1 x308 +1 x310 +1 x323 +1 x325 +1 x338 +1 x340 +1 x353 +1 x355 +1 x370 +1 x372 +1 x385 +1 x387 +1 x400 >= 1 ;
+1 x2 +1 x15 +1 x17 +1 x32 +1 x34 +1 x47 +1 x49 +1 x64 +1 x66 +1 x79 +1 x81 +1 x96 +1 x98 +1 x111 +1 x113 +1 x128 +1 x130 +1 x143 +1 x145 +1 x160 +1 x162 +1 x175 +1 x177 +1 x192 +1 x194 +1 x207 +1 x209 +1 x224 +1 x226 +1 x239 +1 x241 +1 x256 +1 x258 +1 x271 +1 x273 +1 x288 +1 x290 +1 x303 +1 x305 +1 x320 +1 x322 +1 x335 +1 x337 +1 x352 +1 x354 +1 x367 +1 x369 +1 x384 +1 x386 +1 x399 >= 1 ;
+1 x2 +1 x15 +1 x17 +1 x32 +1 x34 +1 x49 +1 x51 +1 x66 +1 x68 +1 x83 +1 x85 +1 x100 +1 x102 +1 x115 +1 x117 +1 x119 +1 x132 +1 x134 +1 x149 +1 x151 +1 x166 +1 x168 +1 x183 +1 x185 +1 x200 +1 x202 +1 x217 +1 x219 +1 x232 +1 x234 +1 x236 +1 x249 +1 x251 +1 x266 +1 x268 +1 x283 +1 x285 +1 x300 +1 x302 +1 x317 +1 x319 +1 x334 +1 x336 +1 x349 +1 x351 +1 x366 +1 x368 +1 x383 +1 x385 +1 x400 >= 1 ;
+1 x2 +1 x17 +1 x19 +1 x34 +1 x36 +1 x51 +1 x53 +1 x68 +1 x70 +1 x85 +1 x87 +1 x89 +1 x104 +1 x106 +1 x121 +1 x123 +1 x138 +1 x140 +1 x155 +1 x157 +1 x159 +1 x174 +1 x176 +1 x191 +1 x193 +1 x208 +1 x210 +1 x225 +1 x227 +1 x242 +1 x244 +1 x246 +1 x261 +1 x263 +1 x278 +1 x280 +1 x295 +1 x297 +1 x312 +1 x314 +1 x316 +1 x331 +1 x333 +1 x348 +1 x350 +1 x365 +1 x367 +1 x382 +1 x384 +1 x399 >= 1 ;
+1 x2 +1 x17 +1 x19 +1 x36 +1 x38 +1 x53 +1 x55 +1 x72 +1 x74 +1 x89 +1 x91 +1 x93 +1 x108 +1 x110 +1 x127 +1 x129 +1 x144 +1 x146 +1 x148 +1 x163 +1 x165 +1 x180 +1 x182 +1 x184 +1 x199 +1 x201 +1 x218 +1 x220 +1 x235 +1 x237 +1 x239 +1 x254 +1 x256 +1 x273 +1 x275 +1 x290 +1 x292 +1 x309 +1 x311 +1 x326 +1 x328 +1 x330 +1 x345 +1 x347 +1 x364 +1 x366 +1 x381 +1 x383 +1 x385 +1 x400 >= 1 ;
+1 x2 +1 x17 +1 x19 +1 x21 +1 x36 +1 x38 +1 x40 +1 x55 +1 x57 +1 x59 +1 x74 +1 x76 +1 x78 +1 x95 +1 x97 +1 x114 +1 x116 +1 x133 +1 x135 +1 x152 +1 x154 +1 x171 +1 x173 +1 x190 +1 x192 +1 x209 +1 x211 +1 x228 +1 x230 +1 x247 +1 x249 +1 x266 +1 x268 +1 x285 +1 x287 +1 x304 +1 x306 +1 x323 +1 x325 +1 x327 +1 x342 +1 x344 +1 x346 +1 x361 +1 x363 +1 x365 +1 x380 +1 x382 +1 x384 +1 x399 >= 1 ;
+1 x2 +1 x19 +1 x21 +1 x38 +1 x40 +1 x42 +1 x59 +1 x61 +1 x78 +1 x80 +1 x82 +1 x99 +1 x101 +1 x118 +1 x120 +1 x122 +1 x139 +1 x141 +1 x158 +1 x160 +1 x162 +1 x179 +1 x181 +1 x198 +1 x200 +1 x202 +1 x219 +1 x221 +1 x223 +1 x240 +1 x242 +1 x259 +1 x261 +1 x263 +1 x280 +1 x282 +1 x299 +1 x301 +1 x303 +1 x320 +1 x322 +1 x339 +1 x341 +1 x343 +1 x360 +1 x362 +1 x379 +1 x381 +1 x383 +1 x400 >= 1 ;
+1 x2 +1 x19 +1 x21 +1 x23 +1 x40 +1 x42 +1 x44 +1 x61 +1 x63 +1 x65 +1 x82 +1 x84 +1 x86 +1 x103 +1 x105 +1 x107 +1 x124 +1 x126 +1 x128 +1 x147 +1 x149 +1 x168 +1 x170 +1 x189 +1 x191 +1 x210 +1 x212 +1 x231 +1 x233 +1 x252 +1 x254 +1 x273 +1 x275 +1 x277 +1 x294 +1 x296 +1 x298 +1 x315 +1 x317 +1 x319 +1 x336 +1 x338 +1 x340 +1 x357 +1 x359 +1 x361 +1 x378 +1 x380 +1 x382 +1 x399 >= 1 ;
+1 x2 +1 x21 +1 x23 +1 x25 +1 x42 +1 x44 +1 x46 +1 x65 +1 x67 +1 x69 +1 x88 +1 x90 +1 x109 +1 x111 +1 x113 +1 x132 +1 x134 +1 x136 +1 x155 +1 x157 +1 x176 +1 x178 +1 x180 +1 x199 +1 x201 +1 x203 +1 x220 +1 x222 +1 x224 +1 x243 +1 x245 +1 x247 +1 x266 +1 x268 +1 x270 +1 x287 +1 x289 +1 x291 +1 x310 +1 x312 +1 x314 +1 x333 +1 x335 +1 x354 +1 x356 +1 x358 +1 x377 +1 x379 +1 x381 +1 x400 >= 1 ;
+1 x2 +1 x21 +1 x23 +1 x25 +1 x46 +1 x48 +1 x50 +1 x69 +1 x71 +1 x73 +1 x92 +1 x94 +1 x96 +1 x115 +1 x117 +1 x119 +1 x140 +1 x142 +1 x144 +1 x163 +1 x165 +1 x167 +1 x186 +1 x188 +1 x190 +1 x211 +1 x213 +1 x215 +1 x234 +1 x236 +1 x238 +1 x257 +1 x259 +1 x261 +1 x282 +1 x284 +1 x286 +1 x305 +1 x307 +1 x309 +1 x328 +1 x330 +1 x332 +1 x351 +1 x353 +1 x355 +1 x376 +1 x378 +1 x380 +1 x399 >= 1 ;
+1 x2 +1 x23 +1 x25 +1 x27 +1 x48 +1 x50 +1 x52 +1 x73 +1 x75 +1 x77 +1 x98 +1 x100 +1 x102 +1 x123 +1 x125 +1 x127 +1 x148 +1 x150 +1 x152 +1 x173 +1 x175 +1 x177 +1 x198 +1 x200 +1 x202 +1 x223 +1 x225 +1 x227 +1 x248 +1 x250 +1 x252 +1 x273 +1 x275 +1 x277 +1 x298 +1 x300 +1 x302 +1 x323 +1 x325 +1 x327 +1 x348 +1 x350 +1 x352 +1 x354 +1 x373 +1 x375 +1 x377 +1 x379 +1 x398 +1 x400 >= 1 ;
+1 x2 +1 x25 +1 x27 +1 x29 +1 x52 +1 x54 +1 x56 +1 x77 +1 x79 +1 x81 +1 x83 +1 x104 +1 x106 +1 x108 +1 x110 +1 x131 +1 x133 +1 x135 +1 x137 +1 x158 +1 x160 +1 x162 +1 x185 +1 x187 +1 x189 +1 x212 +1 x214 +1 x216 +1 x239 +1 x241 +1 x243 +1 x264 +1 x266 +1 x268 +1 x270 +1 x291 +1 x293 +1 x295 +1 x297 +1 x318 +1 x320 +1 x322 +1 x324 +1 x345 +1 x347 +1 x349 +1 x372 +1 x374 +1 x376 +1 x399 >= 1 ;
+1 x2 +1 x27 +1 x29 +1 x31 +1 x54 +1 x56 +1 x58 +1 x60 +1 x83 +1 x85 +1 x87 +1 x89 +1 x112 +1 x114 +1 x116 +1 x118 +1 x141 +1 x143 +1 x145 +1 x170 +1 x172 +1 x174 +1 x197 +1 x199 +1 x201 +1 x203 +1 x226 +1 x228 +1 x230 +1 x232 +1 x255 +1 x257 +1 x259 +1 x261 +1 x284 +1 x286 +1 x288 +1 x290 +1 x313 +1 x315 +1 x317 +1 x342 +1 x344 +1 x346 +1 x369 +1 x371 +1 x373 +1 x375 +1 x398 +1 x400 >= 1 ;
+1 x2 +1 x27 +1 x29 +1 x31 +1 x33 +1 x58 +1 x60 +1 x62 +1 x64 +1 x89 +1 x91 +1 x93 +1 x95 +1 x120 +1 x122 +1 x124 +1 x126 +1 x151 +1 x153 +1 x155 +1 x157 +1 x182 +1 x184 +1 x186 +1 x188 +1 x213 +1 x215 +1 x217 +1 x219 +1 x244 +1 x246 +1 x248 +1 x250 +1 x275 +1 x277 +1 x279 +1 x281 +1 x306 +1 x308 +1 x310 +1 x312 +1 x337 +1 x339 +1 x341 +1 x343 +1 x368 +1 x370 +1 x372 +1 x374 +1 x399 >= 1 ;
+1 x2 +1 x4 +1 x31 +1 x33 +1 x35 +1 x37 +1 x64 +1 x66 +1 x68 +1 x70 +1 x97 +1 x99 +1 x101 +1 x103 +1 x130 +1 x132 +1 x134 +1 x136 +1 x163 +1 x165 +1 x167 +1 x169 +1 x171 +1 x198 +1 x200 +1 x202 +1 x204 +1 x231 +1 x233 +1 x235 +1 x237 +1 x264 +1 x266 +1 x268 +1 x270 +1 x297 +1 x299 +1 x301 +1 x303 +1 x330 +1 x332 +1 x334 +1 x336 +1 x338 +1 x365 +1 x367 +1 x369 +1 x371 +1 x398 +1 x400 >= 1 ;
+1 x2 +1 x4 +1 x33 +1 x35 +1 x37 +1 x39 +1 x41 +1 x70 +1 x72 +1 x74 +1 x76 +1 x105 +1 x107 +1 x109 +1 x111 +1 x113 +1 x142 +1 x144 +1 x146 +1 x148 +1 x150 +1 x179 +1 x181 +1 x183 +1 x185 +1 x216 +1 x218 +1 x220 +1 x222 +1 x251 +1 x253 +1 x255 +1 x257 +1 x259 +1 x288 +1 x290 +1 x292 +1 x294 +1 x296 +1 x325 +1 x327 +1 x329 +1 x331 +1 x360 +1 x362 +1 x364 +1 x366 +1 x368 +1 x397 +1 x399 >= 1 ;
+1 x2 +1 x4 +1 x37 +1 x39 +1 x41 +1 x43 +1 x45 +1 x76 +1 x78 +1 x80 +1 x82 +1 x84 +1 x117 +1 x119 +1 x121 +1 x123 +1 x125 +1 x156 +1 x158 +1 x160 +1 x162 +1 x164 +1 x197 +1 x199 +1 x201 +1 x203 +1 x205 +1 x236 +1 x238 +1 x240 +1 x242 +1 x244 +1 x277 +1 x279 +1 x281 +1 x283 +1 x285 +1 x316 +1 x318 +1 x320 +1 x322 +1 x324 +1 x357 +1 x359 +1 x361 +1 x363 +1 x365 +1 x396 +1 x398 +1 x400 >= 1 ;
+1 x2 +1 x4 +1 x39 +1 x41 +1 x43 +1 x45 +1 x47 +1 x49 +1 x84 +1 x86 +1 x88 +1 x90 +1 x92 +1 x94 +1 x129 +1 x131 +1 x133 +1 x135 +1 x137 +1 x139 +1 x174 +1 x176 +1 x178 +1 x180 +1 x182 +1 x219 +1 x221 +1 x223 +1 x225 +1 x227 +1 x262 +1 x264 +1 x266 +1 x268 +1 x270 +1 x272 +1 x307 +1 x309 +1 x311 +1 x313 +1 x315 +1 x317 +1 x352 +1 x354 +1 x356 +1 x358 +1 x360 +1 x362 +1 x397 +1 x399 >= 1 ;
+1 x2 +1 x4 +1 x6 +1 x45 +1 x47 +1 x49 +1 x51 +1 x53 +1 x55 +1 x94 +1 x96 +1 x98 +1 x100 +1 x102 +1 x104 +1 x106 +1 x145 +1 x147 +1 x149 +1 x151 +1 x153 +1 x155 +1 x196 +1 x198 +1 x200 +1 x202 +1 x204 +1 x206 +1 x245 +1 x247 +1 x249 +1 x251 +1 x253 +1 x255 +1 x296 +1 x298 +1 x300 +1 x302 +1 x304 +1 x306 +1 x345 +1 x347 +1 x349 +1 x351 +1 x353 +1 x355 +1 x357 +1 x396 +1 x398 +1 x400 >= 1 ;
+1 x2 +1 x4 +1 x6 +1 x51 +1 x53 +1 x55 +1 x57 +1 x59 +1 x61 +1 x63 +1 x108 +1 x110 +1 x112 +1 x114 +1 x116 +1 x118 +1 x120 +1 x165 +1 x167 +1 x169 +1 x171 +1 x173 +1 x175 +1 x177 +1 x179 +1 x222 +1 x224 +1 x226 +1 x228 +1 x230 +1 x232 +1 x234 +1 x236 +1 x281 +1 x283 +1 x285 +1 x287 +1 x289 +1 x291 +1 x293 +1 x338 +1 x340 +1 x342 +1 x344 +1 x346 +1 x348 +1 x350 +1 x395 +1 x397 +1 x399 >= 1 ;
+1 x2 +1 x4 +1 x6 +1 x8 +1 x59 +1 x61 +1 x63 +1 x65 +1 x67 +1 x69 +1 x71 +1 x73 +1 x75 +1 x126 +1 x128 +1 x130 +1 x132 +1 x134 +1 x136 +1 x138 +1 x140 +1 x142 +1 x193 +1 x195 +1 x197 +1 x199 +1 x201 +1 x203 +1 x205 +1 x207 +1 x260 +1 x262 +1 x264 +1 x266 +1 x268 +1 x270 +1 x272 +1 x274 +1 x327 +1 x329 +1 x331 +1 x333 +1 x335 +1 x337 +1 x339 +1 x341 +1 x394 +1 x396 +1 x398 +1 x400 >= 1 ;
+1 x2 +1 x4 +1 x6 +1 x8 +1 x10 +1 x71 +1 x73 +1 x75 +1 x77 +1 x79 +1 x81 +1 x83 +1 x85 +1 x87 +1 x89 +1 x152 +1 x154 +1 x156 +1 x158 +1 x160 +1 x162 +1 x164 +1 x166 +1 x168 +1 x170 +1 x231 +1 x233 +1 x235 +1 x237 +1 x239 +1 x241 +1 x243 +1 x245 +1 x247 +1 x249 +1 x312 +1 x314 +1 x316 +1 x318 +1 x320 +1 x322 +1 x324 +1 x326 +1 x328 +1 x330 +1 x391 +1 x393 +1 x395 +1 x397 +1 x399 >= 1 ;
+1 x2 +1 x4 +1 x6 +1 x8 +1 x10 +1 x12 +1 x89 +1 x91 +1 x93 +1 x95 +1 x97 +1 x99 +1 x101 +1 x103 +1 x105 +1 x107 +1 x109 +1 x111 +1 x188 +1 x190 +1 x192 +1 x194 +1 x196 +1 x198 +1 x200 +1 x202 +1 x204 +1 x206 +1 x208 +1 x210 +1 x212 +1 x289 +1 x291 +1 x293 +1 x295 +1 x297 +1 x299 +1 x301 +1 x303 +1 x305 +1 x307 +1 x309 +1 x311 +1 x313 +1 x390 +1 x392 +1 x394 +1 x396 +1 x398 +1 x400 >= 1 ;
+1 x2 +1 x4 +1 x6 +1 x8 +1 x10 +1 x12 +1 x14 +1 x16 +1 x117 +1 x119 +1 x121 +1 x123 +1 x125 +1 x127 +1 x129 +1 x131 +1 x133 +1 x135 +1 x137 +1 x139 +1 x141 +1 x143 +1 x145 +1 x147 +1 x149 +1 x252 +1 x254 +1 x256 +1 x258 +1 x260 +1 x262 +1 x264 +1 x266 +1 x268 +1 x270 +1 x272 +1 x274 +1 x276 +1 x278 +1 x280 +1 x282 +1 x284 +1 x385 +1 x387 +1 x389 +1 x391 +1 x393 +1 x395 +1 x397 +1 x399 >= 1 ;
+1 x2 +1 x4 +1 x6 +1 x8 +1 x10 +1 x12 +1 x14 +1 x16 +1 x18 +1 x20 +1 x22 +1 x24 +1 x177 +1 x179 +1 x181 +1 x183 +1 x185 +1 x187 +1 x189 +1 x191 +1 x193 +1 x195 +1 x197 +1 x199 +1 x201 +1 x203 +1 x205 +1 x207 +1 x209 +1 x211 +1 x213 +1 x215 +1 x217 +1 x219 +1 x221 +1 x223 +1 x225 +1 x376 +1 x378 +1 x380 +1 x382 +1 x384 +1 x386 +1 x388 +1 x390 +1 x392 +1 x394 +1 x396 +1 x398 +1 x400 >= 1 ;
+1 x2 +1 x4 +1 x6 +1 x8 +1 x10 +1 x12 +1 x14 +1 x16 +1 x18 +1 x20 +1 x22 +1 x24 +1 x26 +1 x28 +1 x30 +1 x32 +1 x34 +1 x36 +1 x38 +1 x40 +1 x42 +1 x44 +1 x46 +1 x48 +1 x50 +1 x351 +1 x353 +1 x355 +1 x357 +1 x359 +1 x361 +1 x363 +1 x365 +1 x367 +1 x369 +1 x371 +1 x373 +1 x375 +1 x377 +1 x379 +1 x381 +1 x383 +1 x385 +1 x387 +1 x389 +1 x391 +1 x393 +1 x395 +1 x397 +1 x399 >= 1 ;
+1 x2 +1 x4 +1 x6 +1 x8 +1 x10 +1 x12 +1 x14 +1 x16 +1 x18 +1 x20 +1 x22 +1 x24 +1 x26 +1 x28 +1 x30 +1 x32 +1 x34 +1 x36 +1 x38 +1 x40 +1 x42 +1 x44 +1 x46 +1 x48 +1 x50 +1 x52 +1 x54 +1 x56 +1 x58 +1 x60 +1 x62 +1 x64 +1 x66 +1 x68 +1 x70 +1 x72 +1 x74 +1 x76 +1 x78 +1 x80 +1 x82 +1 x84 +1 x86 +1 x88 +1 x90 +1 x92 +1 x94 +1 x96 +1 x98 +1 x100 +1 x102 +1 x104 +1 x106 +1 x108 +1 x110 +1 x112 +1 x114 +1 x116 +1 x118 +1 x120 +1 x122 +1 x124 +1 x126 +1 x128 +1 x130 +1 x132 +1 x134 +1 x136 +1 x138 +1 x140 +1 x142 +1 x144 +1 x146 +1 x148 +1 x150 +1 x152 +1 x154 +1 x156 +1 x158 +1 x160 +1 x162 +1 x164 +1 x166 +1 x168 +1 x170 +1 x172 +1 x174 +1 x176 +1 x178 +1 x180 +1 x182 +1 x184 +1 x186 +1 x188 +1 x190 +1 x192 +1 x194 +1 x196 +1 x198 +1 x200 +1 x202 +1 x204 +1 x206 +1 x208 +1 x210 +1 x212 +1 x214 +1 x216 +1 x218 +1 x220 +1 x222 +1 x224 +1 x226 +1 x228 +1 x230 +1 x232 +1 x234 +1 x236 +1 x238 +1 x240 +1 x242 +1 x244 +1 x246 +1 x248 +1 x250 +1 x252 +1 x254 +1 x256 +1 x258 +1 x260 +1 x262 +1 x264 +1 x266 +1 x268 +1 x270 +1 x272 +1 x274 +1 x276 +1 x278 +1 x280 +1 x282 +1 x284 +1 x286 +1 x288 +1 x290 +1 x292 +1 x294 +1 x296 +1 x298 +1 x300 +1 x302 +1 x304 +1 x306 +1 x308 +1 x310 +1 x312 +1 x314 +1 x316 +1 x318 +1 x320 +1 x322 +1 x324 +1 x326 +1 x328 +1 x330 +1 x332 +1 x334 +1 x336 +1 x338 +1 x340 +1 x342 +1 x344 +1 x346 +1 x348 +1 x350 +1 x352 +1 x354 +1 x356 +1 x358 +1 x360 +1 x362 +1 x364 +1 x366 +1 x368 +1 x370 +1 x372 +1 x374 +1 x376 +1 x378 +1 x380 +1 x382 +1 x384 +1 x386 +1 x388 +1 x390 +1 x392 +1 x394 +1 x396 +1 x398 +1 x400 >= 1 ;
+1 x1 +1 x2 +1 x3 +1 x4 +1 x5 +1 x6 +1 x7 +1 x8 +1 x9 +1 x10 +1 x11 +1 x12 +1 x13 +1 x14 +1 x15 +1 x16 +1 x17 +1 x18 +1 x19 +1 x20 +1 x21 +1 x22 +1 x23 +1 x24 +1 x25 +1 x376 +1 x377 +1 x378 +1 x379 +1 x380 +1 x381 +1 x382 +1 x383 +1 x384 +1 x385 +1 x386 +1 x387 +1 x388 +1 x389 +1 x390 +1 x391 +1 x392 +1 x393 +1 x394 +1 x395 +1 x396 +1 x397 +1 x398 +1 x399 +1 x400 >= 1 ;
-1 x1 -1 x2 -1 x3 -1 x4 -1 x5 -1 x6 -1 x7 -1 x8 -1 x9 -1 x10 -1 x11 -1 x12 -1 x13 -1 x14 -1 x15 -1 x16 -1 x17 -1 x18 -1 x19 -1 x20 -1 x21 -1 x22 -1 x23 -1 x24 -1 x25 -1 x376 -1 x377 -1 x378 -1 x379 -1 x380 -1 x381 -1 x382 -1 x383 -1 x384 -1 x385 -1 x386 -1 x387 -1 x388 -1 x389 -1 x390 -1 x391 -1 x392 -1 x393 -1 x394 -1 x395 -1 x396 -1 x397 -1 x398 -1 x399 -1 x400 -14 x401 >= -15 ;
+1 x1 +1 x2 +1 x3 +1 x4 +1 x5 +1 x6 +1 x7 +1 x8 +1 x9 +1 x10 +1 x11 +1 x12 +1 x188 +1 x189 +1 x190 +1 x191 +1 x192 +1 x193 +1 x194 +1 x195 +1 x196 +1 x197 +1 x198 +1 x199 +1 x200 +1 x201 +1 x202 +1 x203 +1 x204 +1 x205 +1 x206 +1 x207 +1 x208 +1 x209 +1 x210 +1 x211 +1 x212 +1 x213 +1 x389 +1 x390 +1 x391 +1 x392 +1 x393 +1 x394 +1 x395 +1 x396 +1 x397 +1 x398 +1 x399 +1 x400 >= 1 ;
-1 x1 -1 x2 -1 x3 -1 x4 -1 x5 -1 x6 -1 x7 -1 x8 -1 x9 -1 x10 -1 x11 -1 x12 -1 x188 -1 x189 -1 x190 -1 x191 -1 x192 -1 x193 -1 x194 -1 x195 -1 x196 -1 x197 -1 x198 -1 x199 -1 x200 -1 x201 -1 x202 -1 x203 -1 x204 -1 x205 -1 x206 -1 x207 -1 x208 -1 x209 -1 x210 -1 x211 -1 x212 -1 x213 -1 x389 -1 x390 -1 x391 -1 x392 -1 x393 -1 x394 -1 x395 -1 x396 -1 x397 -1 x398 -1 x399 -1 x400 -14 x402 >= -15 ;
+1 x1 +1 x2 +1 x3 +1 x4 +1 x5 +1 x6 +1 x7 +1 x8 +1 x126 +1 x127 +1 x128 +1 x129 +1 x130 +1 x131 +1 x132 +1 x133 +1 x134 +1 x135 +1 x136 +1 x137 +1 x138 +1 x139 +1 x140 +1 x141 +1 x142 +1 x259 +1 x260 +1 x261 +1 x262 +1 x263 +1 x264 +1 x265 +1 x266 +1 x267 +1 x268 +1 x269 +1 x270 +1 x271 +1 x272 +1 x273 +1 x274 +1 x275 +1 x393 +1 x394 +1 x395 +1 x396 +1 x397 +1 x398 +1 x399 +1 x400 >= 1 ;
-1 x1 -1 x2 -1 x3 -1 x4 -1 x5 -1 x6 -1 x7 -1 x8 -1 x126 -1 x127 -1 x128 -1 x129 -1 x130 -1 x131 -1 x132 -1 x133 -1 x134 -1 x135 -1 x136 -1 x137 -1 x138 -1 x139 -1 x140 -1 x141 -1 x142 -1 x259 -1 x260 -1 x261 -1 x262 -1 x263 -1 x264 -1 x265 -1 x266 -1 x267 -1 x268 -1 x269 -1 x270 -1 x271 -1 x272 -1 x273 -1 x274 -1 x275 -1 x393 -1 x394 -1 x395 -1 x396 -1 x397 -1 x398 -1 x399 -1 x400 -14 x403 >= -15 ;
+1 x1 +1 x2 +1 x3 +1 x4 +1 x5 +1 x6 +1 x94 +1 x95 +1 x96 +1 x97 +1 x98 +1 x99 +1 x100 +1 x101 +1 x102 +1 x103 +1 x104 +1 x105 +1 x106 +1 x195 +1 x196 +1 x197 +1 x198 +1 x199 +1 x200 +1 x201 +1 x202 +1 x203 +1 x204 +1 x205 +1 x206 +1 x295 +1 x296 +1 x297 +1 x298 +1 x299 +1 x300 +1 x301 +1 x302 +1 x303 +1 x304 +1 x305 +1 x306 +1 x307 +1 x395 +1 x396 +1 x397 +1 x398 +1 x399 +1 x400 >= 1 ;
-1 x1 -1 x2 -1 x3 -1 x4 -1 x5 -1 x6 -1 x94 -1 x95 -1 x96 -1 x97 -1 x98 -1 x99 -1 x100 -1 x101 -1 x102 -1 x103 -1 x104 -1 x105 -1 x106 -1 x195 -1 x196 -1 x197 -1 x198 -1 x199 -1 x200 -1 x201 -1 x202 -1 x203 -1 x204 -1 x205 -1 x206 -1 x295 -1 x296 -1 x297 -1 x298 -1 x299 -1 x300 -1 x301 -1 x302 -1 x303 -1 x304 -1 x305 -1 x306 -1 x307 -1 x395 -1 x396 -1 x397 -1 x398 -1 x399 -1 x400 -14 x404 >= -15 ;
+1 x1 +1 x2 +1 x3 +1 x4 +1 x5 +1 x76 +1 x77 +1 x78 +1 x79 +1 x80 +1 x81 +1 x82 +1 x83 +1 x84 +1 x85 +1 x156 +1 x157 +1 x158 +1 x159 +1 x160 +1 x161 +1 x162 +1 x163 +1 x164 +1 x165 +1 x236 +1 x237 +1 x238 +1 x239 +1 x240 +1 x241 +1 x242 +1 x243 +1 x244 +1 x245 +1 x316 +1 x317 +1 x318 +1 x319 +1 x320 +1 x321 +1 x322 +1 x323 +1 x324 +1 x325 +1 x396 +1 x397 +1 x398 +1 x399 +1 x400 >= 1 ;
-1 x1 -1 x2 -1 x3 -1 x4 -1 x5 -1 x76 -1 x77 -1 x78 -1 x79 -1 x80 -1 x81 -1 x82 -1 x83 -1 x84 -1 x85 -1 x156 -1 x157 -1 x158 -1 x159 -1 x160 -1 x161 -1 x162 -1 x163 -1 x164 -1 x165 -1 x236 -1 x237 -1 x238 -1 x239 -1 x240 -1 x241 -1 x242 -1 x243 -1 x244 -1 x245 -1 x316 -1 x317 -1 x318 -1 x319 -1 x320 -1 x321 -1 x322 -1 x323 -1 x324 -1 x325 -1 x396 -1 x397 -1 x398 -1 x399 -1 x400 -14 x405 >= -15 ;
+1 x1 +1 x2 +1 x3 +1 x4 +1 x63 +1 x64 +1 x65 +1 x66 +1 x67 +1 x68 +1 x69 +1 x70 +1 x71 +1 x130 +1 x131 +1 x132 +1 x133 +1 x134 +1 x135 +1 x136 +1 x137 +1 x197 +1 x198 +1 x199 +1 x200 +1 x201 +1 x202 +1 x203 +1 x204 +1 x264 +1 x265 +1 x266 +1 x267 +1 x268 +1 x269 +1 x270 +1 x271 +1 x330 +1 x331 +1 x332 +1 x333 +1 x334 +1 x335 +1 x336 +1 x337 +1 x338 +1 x397 +1 x398 +1 x399 +1 x400 >= 1 ;
-1 x1 -1 x2 -1 x3 -1 x4 -1 x63 -1 x64 -1 x65 -1 x66 -1 x67 -1 x68 -1 x69 -1 x70 -1 x71 -1 x130 -1 x131 -1 x132 -1 x133 -1 x134 -1 x135 -1 x136 -1 x137 -1 x197 -1 x198 -1 x199 -1 x200 -1 x201 -1 x202 -1 x203 -1 x204 -1 x264 -1 x265 -1 x266 -1 x267 -1 x268 -1 x269 -1 x270 -1 x271 -1 x330 -1 x331 -1 x332 -1 x333 -1 x334 -1 x335 -1 x336 -1 x337 -1 x338 -1 x397 -1 x398 -1 x399 -1 x400 -14 x406 >= -15 ;
+1 x1 +1 x2 +1 x3 +1 x54 +1 x55 +1 x56 +1 x57 +1 x58 +1 x59 +1 x60 +1 x111 +1 x112 +1 x113 +1 x114 +1 x115 +1 x116 +1 x117 +1 x118 +1 x169 +1 x170 +1 x171 +1 x172 +1 x173 +1 x174 +1 x175 +1 x226 +1 x227 +1 x228 +1 x229 +1 x230 +1 x231 +1 x232 +1 x283 +1 x284 +1 x285 +1 x286 +1 x287 +1 x288 +1 x289 +1 x290 +1 x341 +1 x342 +1 x343 +1 x344 +1 x345 +1 x346 +1 x347 +1 x398 +1 x399 +1 x400 >= 1 ;
-1 x1 -1 x2 -1 x3 -1 x54 -1 x55 -1 x56 -1 x57 -1 x58 -1 x59 -1 x60 -1 x111 -1 x112 -1 x113 -1 x114 -1 x115 -1 x116 -1 x117 -1 x118 -1 x169 -1 x170 -1 x171 -1 x172 -1 x173 -1 x174 -1 x175 -1 x226 -1 x227 -1 x228 -1 x229 -1 x230 -1 x231 -1 x232 -1 x283 -1 x284 -1 x285 -1 x286 -1 x287 -1 x288 -1 x289 -1 x290 -1 x341 -1 x342 -1 x343 -1 x344 -1 x345 -1 x346 -1 x347 -1 x398 -1 x399 -1 x400 -14 x407 >= -15 ;
+1 x1 +1 x2 +1 x3 +1 x47 +1 x48 +1 x49 +1 x50 +1 x51 +1 x52 +1 x53 +1 x98 +1 x99 +1 x100 +1 x101 +1 x102 +1 x103 +1 x148 +1 x149 +1 x150 +1 x151 +1 x152 +1 x153 +1 x198 +1 x199 +1 x200 +1 x201 +1 x202 +1 x203 +1 x248 +1 x249 +1 x250 +1 x251 +1 x252 +1 x253 +1 x298 +1 x299 +1 x300 +1 x301 +1 x302 +1 x303 +1 x348 +1 x349 +1 x350 +1 x351 +1 x352 +1 x353 +1 x354 +1 x398 +1 x399 +1 x400 >= 1 ;
-1 x1 -1 x2 -1 x3 -1 x47 -1 x48 -1 x49 -1 x50 -1 x51 -1 x52 -1 x53 -1 x98 -1 x99 -1 x100 -1 x101 -1 x102 -1 x103 -1 x148 -1 x149 -1 x150 -1 x151 -1 x152 -1 x153 -1 x198 -1 x199 -1 x200 -1 x201 -1 x202 -1 x203 -1 x248 -1 x249 -1 x250 -1 x251 -1 x252 -1 x253 -1 x298 -1 x299 -1 x300 -1 x301 -1 x302 -1 x303 -1 x348 -1 x349 -1 x350 -1 x351 -1 x352 -1 x353 -1 x354 -1 x398 -1 x399 -1 x400 -14 x408 >= -15 ;
+1 x1 +1 x2 +1 x42 +1 x43 +1 x44 +1 x45 +1 x46 +1 x47 +1 x87 +1 x88 +1 x89 +1 x90 +1 x91 +1 x131 +1 x132 +1 x133 +1 x134 +1 x135 +1 x136 +1 x176 +1 x177 +1 x178 +1 x179 +1 x180 +1 x181 +1 x220 +1 x221 +1 x222 +1 x223 +1 x224 +1 x225 +1 x265 +1 x266 +1 x267 +1 x268 +1 x269 +1 x270 +1 x310 +1 x311 +1 x312 +1 x313 +1 x314 +1 x354 +1 x355 +1 x356 +1 x357 +1 x358 +1 x359 +1 x399 +1 x400 >= 1 ;
-1 x1 -1 x2 -1 x42 -1 x43 -1 x44 -1 x45 -1 x46 -1 x47 -1 x87 -1 x88 -1 x89 -1 x90 -1 x91 -1 x131 -1 x132 -1 x133 -1 x134 -1 x135 -1 x136 -1 x176 -1 x177 -1 x178 -1 x179 -1 x180 -1 x181 -1 x220 -1 x221 -1 x222 -1 x223 -1 x224 -1 x225 -1 x265 -1 x266 -1 x267 -1 x268 -1 x269 -1 x270 -1 x310 -1 x311 -1 x312 -1 x313 -1 x314 -1 x354 -1 x355 -1 x356 -1 x357 -1 x358 -1 x359 -1 x399 -1 x400 -14 x409 >= -15 ;
+1 x1 +1 x2 +1 x38 +1 x39 +1 x40 +1 x41 +1 x42 +1 x78 +1 x79 +1 x80 +1 x81 +1 x82 +1 x118 +1 x119 +1 x120 +1 x121 +1 x122 +1 x158 +1 x159 +1 x160 +1 x161 +1 x162 +1 x198 +1 x199 +1 x200 +1 x201 +1 x202 +1 x203 +1 x239 +1 x240 +1 x241 +1 x242 +1 x243 +1 x279 +1 x280 +1 x281 +1 x282 +1 x283 +1 x319 +1 x320 +1 x321 +1 x322 +1 x323 +1 x359 +1 x360 +1 x361 +1 x362 +1 x363 +1 x399 +1 x400 >= 1 ;
-1 x1 -1 x2 -1 x38 -1 x39 -1 x40 -1 x41 -1 x42 -1 x78 -1 x79 -1 x80 -1 x81 -1 x82 -1 x118 -1 x119 -1 x120 -1 x121 -1 x122 -1 x158 -1 x159 -1 x160 -1 x161 -1 x162 -1 x198 -1 x199 -1 x200 -1 x201 -1 x202 -1 x203 -1 x239 -1 x240 -1 x241 -1 x242 -1 x243 -1 x279 -1 x280 -1 x281 -1 x282 -1 x283 -1 x319 -1 x320 -1 x321 -1 x322 -1 x323 -1 x359 -1 x360 -1 x361 -1 x362 -1 x363 -1 x399 -1 x400 -14 x410 >= -15 ;
+1 x1 +1 x2 +1 x35 +1 x36 +1 x37 +1 x38 +1 x71 +1 x72 +1 x73 +1 x74 +1 x75 +1 x108 +1 x109 +1 x110 +1 x111 +1 x144 +1 x145 +1 x146 +1 x147 +1 x148 +1 x180 +1 x181 +1 x182 +1 x183 +1 x184 +1 x217 +1 x218 +1 x219 +1 x220 +1 x221 +1 x253 +1 x254 +1 x255 +1 x256 +1 x257 +1 x290 +1 x291 +1 x292 +1 x293 +1 x326 +1 x327 +1 x328 +1 x329 +1 x330 +1 x363 +1 x364 +1 x365 +1 x366 +1 x399 +1 x400 >= 1 ;
-1 x1 -1 x2 -1 x35 -1 x36 -1 x37 -1 x38 -1 x71 -1 x72 -1 x73 -1 x74 -1 x75 -1 x108 -1 x109 -1 x110 -1 x111 -1 x144 -1 x145 -1 x146 -1 x147 -1 x148 -1 x180 -1 x181 -1 x182 -1 x183 -1 x184 -1 x217 -1 x218 -1 x219 -1 x220 -1 x221 -1 x253 -1 x254 -1 x255 -1 x256 -1 x257 -1 x290 -1 x291 -1 x292 -1 x293 -1 x326 -1 x327 -1 x328 -1 x329 -1 x330 -1 x363 -1 x364 -1 x365 -1 x366 -1 x399 -1 x400 -14 x411 >= -15 ;
+1 x1 +1 x2 +1 x32 +1 x33 +1 x34 +1 x35 +1 x65 +1 x66 +1 x67 +1 x68 +1 x99 +1 x100 +1 x101 +1 x102 +1 x132 +1 x133 +1 x134 +1 x135 +1 x165 +1 x166 +1 x167 +1 x168 +1 x169 +1 x199 +1 x200 +1 x201 +1 x202 +1 x232 +1 x233 +1 x234 +1 x235 +1 x236 +1 x266 +1 x267 +1 x268 +1 x269 +1 x299 +1 x300 +1 x301 +1 x302 +1 x333 +1 x334 +1 x335 +1 x336 +1 x366 +1 x367 +1 x368 +1 x369 +1 x399 +1 x400 >= 1 ;
-1 x1 -1 x2 -1 x32 -1 x33 -1 x34 -1 x35 -1 x65 -1 x66 -1 x67 -1 x68 -1 x99 -1 x100 -1 x101 -1 x102 -1 x132 -1 x133 -1 x134 -1 x135 -1 x165 -1 x166 -1 x167 -1 x168 -1 x169 -1 x199 -1 x200 -1 x201 -1 x202 -1 x232 -1 x233 -1 x234 -1 x235 -1 x236 -1 x266 -1 x267 -1 x268 -1 x269 -1 x299 -1 x300 -1 x301 -1 x302 -1 x333 -1 x334 -1 x335 -1 x336 -1 x366 -1 x367 -1 x368 -1 x369 -1 x399 -1 x400 -14 x412 >= -15 ;
+1 x1 +1 x29 +1 x30 +1 x31 +1 x32 +1 x60 +1 x61 +1 x62 +1 x63 +1 x91 +1 x92 +1 x93 +1 x94 +1 x122 +1 x123 +1 x124 +1 x125 +1 x153 +1 x154 +1 x155 +1 x156 +1 x184 +1 x185 +1 x186 +1 x187 +1 x214 +1 x215 +1 x216 +1 x217 +1 x245 +1 x246 +1 x247 +1 x248 +1 x276 +1 x277 +1 x278 +1 x279 +1 x307 +1 x308 +1 x309 +1 x310 +1 x338 +1 x339 +1 x340 +1 x341 +1 x369 +1 x370 +1 x371 +1 x372 +1 x400 >= 1 ;
-1 x1 -1 x29 -1 x30 -1 x31 -1 x32 -1 x60 -1 x61 -1 x62 -1 x63 -1 x91 -1 x92 -1 x93 -1 x94 -1 x122 -1 x123 -1 x124 -1 x125 -1 x153 -1 x154 -1 x155 -1 x156 -1 x184 -1 x185 -1 x186 -1 x187 -1 x214 -1 x215 -1 x216 -1 x217 -1 x245 -1 x246 -1 x247 -1 x248 -1 x276 -1 x277 -1 x278 -1 x279 -1 x307 -1 x308 -1 x309 -1 x310 -1 x338 -1 x339 -1 x340 -1 x341 -1 x369 -1 x370 -1 x371 -1 x372 -1 x400 -14 x413 >= -15 ;
+1 x1 +1 x27 +1 x28 +1 x29 +1 x30 +1 x56 +1 x57 +1 x58 +1 x59 +1 x85 +1 x86 +1 x87 +1 x113 +1 x114 +1 x115 +1 x116 +1 x142 +1 x143 +1 x144 +1 x145 +1 x171 +1 x172 +1 x173 +1 x199 +1 x200 +1 x201 +1 x202 +1 x228 +1 x229 +1 x230 +1 x256 +1 x257 +1 x258 +1 x259 +1 x285 +1 x286 +1 x287 +1 x288 +1 x314 +1 x315 +1 x316 +1 x342 +1 x343 +1 x344 +1 x345 +1 x371 +1 x372 +1 x373 +1 x374 +1 x400 >= 1 ;
-1 x1 -1 x27 -1 x28 -1 x29 -1 x30 -1 x56 -1 x57 -1 x58 -1 x59 -1 x85 -1 x86 -1 x87 -1 x113 -1 x114 -1 x115 -1 x116 -1 x142 -1 x143 -1 x144 -1 x145 -1 x171 -1 x172 -1 x173 -1 x199 -1 x200 -1 x201 -1 x202 -1 x228 -1 x229 -1 x230 -1 x256 -1 x257 -1 x258 -1 x259 -1 x285 -1 x286 -1 x287 -1 x288 -1 x314 -1 x315 -1 x316 -1 x342 -1 x343 -1 x344 -1 x345 -1 x371 -1 x372 -1 x373 -1 x374 -1 x400 -14 x414 >= -15 ;
+1 x1 +1 x26 +1 x27 +1 x28 +1 x52 +1 x53 +1 x54 +1 x55 +1 x79 +1 x80 +1 x81 +1 x106 +1 x107 +1 x108 +1 x132 +1 x133 +1 x134 +1 x135 +1 x159 +1 x160 +1 x161 +1 x162 +1 x186 +1 x187 +1 x188 +1 x213 +1 x214 +1 x215 +1 x239 +1 x240 +1 x241 +1 x242 +1 x266 +1 x267 +1 x268 +1 x269 +1 x293 +1 x294 +1 x295 +1 x320 +1 x321 +1 x322 +1 x346 +1 x347 +1 x348 +1 x349 +1 x373 +1 x374 +1 x375 +1 x400 >= 1 ;
-1 x1 -1 x26 -1 x27 -1 x28 -1 x52 -1 x53 -1 x54 -1 x55 -1 x79 -1 x80 -1 x81 -1 x106 -1 x107 -1 x108 -1 x132 -1 x133 -1 x134 -1 x135 -1 x159 -1 x160 -1 x161 -1 x162 -1 x186 -1 x187 -1 x188 -1 x213 -1 x214 -1 x215 -1 x239 -1 x240 -1 x241 -1 x242 -1 x266 -1 x267 -1 x268 -1 x269 -1 x293 -1 x294 -1 x295 -1 x320 -1 x321 -1 x322 -1 x346 -1 x347 -1 x348 -1 x349 -1 x373 -1 x374 -1 x375 -1 x400 -14 x415 >= -15 ;
+1 x1 +1 x24 +1 x25 +1 x26 +1 x49 +1 x50 +1 x51 +1 x74 +1 x75 +1 x76 +1 x99 +1 x100 +1 x101 +1 x124 +1 x125 +1 x126 +1 x149 +1 x150 +1 x151 +1 x174 +1 x175 +1 x176 +1 x177 +1 x199 +1 x200 +1 x201 +1 x202 +1 x224 +1 x225 +1 x226 +1 x227 +1 x250 +1 x251 +1 x252 +1 x275 +1 x276 +1 x277 +1 x300 +1 x301 +1 x302 +1 x325 +1 x326 +1 x327 +1 x350 +1 x351 +1 x352 +1 x375 +1 x376 +1 x377 +1 x400 >= 1 ;
-1 x1 -1 x24 -1 x25 -1 x26 -1 x49 -1 x50 -1 x51 -1 x74 -1 x75 -1 x76 -1 x99 -1 x100 -1 x101 -1 x124 -1 x125 -1 x126 -1 x149 -1 x150 -1 x151 -1 x174 -1 x175 -1 x176 -1 x177 -1 x199 -1 x200 -1 x201 -1 x202 -1 x224 -1 x225 -1 x226 -1 x227 -1 x250 -1 x251 -1 x252 -1 x275 -1 x276 -1 x277 -1 x300 -1 x301 -1 x302 -1 x325 -1 x326 -1 x327 -1 x350 -1 x351 -1 x352 -1 x375 -1 x376 -1 x377 -1 x400 -14 x416 >= -15 ;
+1 x1 +1 x23 +1 x24 +1 x25 +1 x46 +1 x47 +1 x48 +1 x70 +1 x71 +1 x72 +1 x93 +1 x94 +1 x95 +1 x117 +1 x118 +1 x119 +1 x141 +1 x142 +1 x143 +1 x164 +1 x165 +1 x166 +1 x188 +1 x189 +1 x190 +1 x211 +1 x212 +1 x213 +1 x235 +1 x236 +1 x237 +1 x258 +1 x259 +1 x260 +1 x282 +1 x283 +1 x284 +1 x306 +1 x307 +1 x308 +1 x329 +1 x330 +1 x331 +1 x353 +1 x354 +1 x355 +1 x376 +1 x377 +1 x378 +1 x400 >= 1 ;
-1 x1 -1 x23 -1 x24 -1 x25 -1 x46 -1 x47 -1 x48 -1 x70 -1 x71 -1 x72 -1 x93 -1 x94 -1 x95 -1 x117 -1 x118 -1 x119 -1 x141 -1 x142 -1 x143 -1 x164 -1 x165 -1 x166 -1 x188 -1 x189 -1 x190 -1 x211 -1 x212 -1 x213 -1 x235 -1 x236 -1 x237 -1 x258 -1 x259 -1 x260 -1 x282 -1 x283 -1 x284 -1 x306 -1 x307 -1 x308 -1 x329 -1 x330 -1 x331 -1 x353 -1 x354 -1 x355 -1 x376 -1 x377 -1 x378 -1 x400 -14 x417 >= -15 ;
+1 x1 +1 x21 +1 x22 +1 x23 +1 x44 +1 x45 +1 x66 +1 x67 +1 x68 +1 x88 +1 x89 +1 x90 +1 x110 +1 x111 +1 x112 +1 x133 +1 x134 +1 x135 +1 x155 +1 x156 +1 x157 +1 x177 +1 x178 +1 x179 +1 x200 +1 x201 +1 x222 +1 x223 +1 x224 +1 x244 +1 x245 +1 x246 +1 x266 +1 x267 +1 x268 +1 x289 +1 x290 +1 x291 +1 x311 +1 x312 +1 x313 +1 x333 +1 x334 +1 x335 +1 x356 +1 x357 +1 x378 +1 x379 +1 x380 +1 x400 >= 1 ;
-1 x1 -1 x21 -1 x22 -1 x23 -1 x44 -1 x45 -1 x66 -1 x67 -1 x68 -1 x88 -1 x89 -1 x90 -1 x110 -1 x111 -1 x112 -1 x133 -1 x134 -1 x135 -1 x155 -1 x156 -1 x157 -1 x177 -1 x178 -1 x179 -1 x200 -1 x201 -1 x222 -1 x223 -1 x224 -1 x244 -1 x245 -1 x246 -1 x266 -1 x267 -1 x268 -1 x289 -1 x290 -1 x291 -1 x311 -1 x312 -1 x313 -1 x333 -1 x334 -1 x335 -1 x356 -1 x357 -1 x378 -1 x379 -1 x380 -1 x400 -14 x418 >= -15 ;
+1 x1 +1 x20 +1 x21 +1 x22 +1 x41 +1 x42 +1 x43 +1 x62 +1 x63 +1 x64 +1 x84 +1 x85 +1 x105 +1 x106 +1 x126 +1 x127 +1 x147 +1 x148 +1 x149 +1 x168 +1 x169 +1 x170 +1 x189 +1 x190 +1 x191 +1 x210 +1 x211 +1 x212 +1 x231 +1 x232 +1 x233 +1 x252 +1 x253 +1 x254 +1 x274 +1 x275 +1 x295 +1 x296 +1 x316 +1 x317 +1 x337 +1 x338 +1 x339 +1 x358 +1 x359 +1 x360 +1 x379 +1 x380 +1 x381 +1 x400 >= 1 ;
-1 x1 -1 x20 -1 x21 -1 x22 -1 x41 -1 x42 -1 x43 -1 x62 -1 x63 -1 x64 -1 x84 -1 x85 -1 x105 -1 x106 -1 x126 -1 x127 -1 x147 -1 x148 -1 x149 -1 x168 -1 x169 -1 x170 -1 x189 -1 x190 -1 x191 -1 x210 -1 x211 -1 x212 -1 x231 -1 x232 -1 x233 -1 x252 -1 x253 -1 x254 -1 x274 -1 x275 -1 x295 -1 x296 -1 x316 -1 x317 -1 x337 -1 x338 -1 x339 -1 x358 -1 x359 -1 x360 -1 x379 -1 x380 -1 x381 -1 x400 -14 x419 >= -15 ;
+1 x1 +1 x19 +1 x20 +1 x21 +1 x39 +1 x40 +1 x41 +1 x59 +1 x60 +1 x61 +1 x79 +1 x80 +1 x81 +1 x99 +1 x100 +1 x101 +1 x120 +1 x121 +1 x140 +1 x141 +1 x160 +1 x161 +1 x180 +1 x181 +1 x200 +1 x201 +1 x220 +1 x221 +1 x240 +1 x241 +1 x260 +1 x261 +1 x280 +1 x281 +1 x300 +1 x301 +1 x302 +1 x320 +1 x321 +1 x322 +1 x340 +1 x341 +1 x342 +1 x360 +1 x361 +1 x362 +1 x380 +1 x381 +1 x382 +1 x400 >= 1 ;
-1 x1 -1 x19 -1 x20 -1 x21 -1 x39 -1 x40 -1 x41 -1 x59 -1 x60 -1 x61 -1 x79 -1 x80 -1 x81 -1 x99 -1 x100 -1 x101 -1 x120 -1 x121 -1 x140 -1 x141 -1 x160 -1 x161 -1 x180 -1 x181 -1 x200 -1 x201 -1 x220 -1 x221 -1 x240 -1 x241 -1 x260 -1 x261 -1 x280 -1 x281 -1 x300 -1 x301 -1 x302 -1 x320 -1 x321 -1 x322 -1 x340 -1 x341 -1 x342 -1 x360 -1 x361 -1 x362 -1 x380 -1 x381 -1 x382 -1 x400 -14 x420 >= -15 ;
+1 x1 +1 x18 +1 x19 +1 x20 +1 x37 +1 x38 +1 x39 +1 x57 +1 x58 +1 x76 +1 x77 +1 x95 +1 x96 +1 x114 +1 x115 +1 x133 +1 x134 +1 x152 +1 x153 +1 x171 +1 x172 +1 x173 +1 x190 +1 x191 +1 x192 +1 x209 +1 x210 +1 x211 +1 x228 +1 x229 +1 x230 +1 x248 +1 x249 +1 x267 +1 x268 +1 x286 +1 x287 +1 x305 +1 x306 +1 x324 +1 x325 +1 x343 +1 x344 +1 x362 +1 x363 +1 x364 +1 x381 +1 x382 +1 x383 +1 x400 >= 1 ;
-1 x1 -1 x18 -1 x19 -1 x20 -1 x37 -1 x38 -1 x39 -1 x57 -1 x58 -1 x76 -1 x77 -1 x95 -1 x96 -1 x114 -1 x115 -1 x133 -1 x134 -1 x152 -1 x153 -1 x171 -1 x172 -1 x173 -1 x190 -1 x191 -1 x192 -1 x209 -1 x210 -1 x211 -1 x228 -1 x229 -1 x230 -1 x248 -1 x249 -1 x267 -1 x268 -1 x286 -1 x287 -1 x305 -1 x306 -1 x324 -1 x325 -1 x343 -1 x344 -1 x362 -1 x363 -1 x364 -1 x381 -1 x382 -1 x383 -1 x400 -14 x421 >= -15 ;
+1 x1 +1 x18 +1 x19 +1 x36 +1 x37 +1 x54 +1 x55 +1 x72 +1 x73 +1 x74 +1 x90 +1 x91 +1 x92 +1 x109 +1 x110 +1 x127 +1 x128 +1 x145 +1 x146 +1 x163 +1 x164 +1 x165 +1 x182 +1 x183 +1 x200 +1 x201 +1 x218 +1 x219 +1 x236 +1 x237 +1 x238 +1 x255 +1 x256 +1 x273 +1 x274 +1 x291 +1 x292 +1 x309 +1 x310 +1 x311 +1 x327 +1 x328 +1 x329 +1 x346 +1 x347 +1 x364 +1 x365 +1 x382 +1 x383 +1 x400 >= 1 ;
-1 x1 -1 x18 -1 x19 -1 x36 -1 x37 -1 x54 -1 x55 -1 x72 -1 x73 -1 x74 -1 x90 -1 x91 -1 x92 -1 x109 -1 x110 -1 x127 -1 x128 -1 x145 -1 x146 -1 x163 -1 x164 -1 x165 -1 x182 -1 x183 -1 x200 -1 x201 -1 x218 -1 x219 -1 x236 -1 x237 -1 x238 -1 x255 -1 x256 -1 x273 -1 x274 -1 x291 -1 x292 -1 x309 -1 x310 -1 x311 -1 x327 -1 x328 -1 x329 -1 x346 -1 x347 -1 x364 -1 x365 -1 x382 -1 x383 -1 x400 -14 x422 >= -15 ;
+1 x1 +1 x17 +1 x18 +1 x34 +1 x35 +1 x52 +1 x53 +1 x69 +1 x70 +1 x87 +1 x88 +1 x104 +1 x105 +1 x121 +1 x122 +1 x123 +1 x139 +1 x140 +1 x156 +1 x157 +1 x158 +1 x174 +1 x175 +1 x191 +1 x192 +1 x209 +1 x210 +1 x226 +1 x227 +1 x243 +1 x244 +1 x245 +1 x261 +1 x262 +1 x278 +1 x279 +1 x280 +1 x296 +1 x297 +1 x313 +1 x314 +1 x331 +1 x332 +1 x348 +1 x349 +1 x366 +1 x367 +1 x383 +1 x384 +1 x400 >= 1 ;
-1 x1 -1 x17 -1 x18 -1 x34 -1 x35 -1 x52 -1 x53 -1 x69 -1 x70 -1 x87 -1 x88 -1 x104 -1 x105 -1 x121 -1 x122 -1 x123 -1 x139 -1 x140 -1 x156 -1 x157 -1 x158 -1 x174 -1 x175 -1 x191 -1 x192 -1 x209 -1 x210 -1 x226 -1 x227 -1 x243 -1 x244 -1 x245 -1 x261 -1 x262 -1 x278 -1 x279 -1 x280 -1 x296 -1 x297 -1 x313 -1 x314 -1 x331 -1 x332 -1 x348 -1 x349 -1 x366 -1 x367 -1 x383 -1 x384 -1 x400 -14 x423 >= -15 ;
+1 x1 +1 x16 +1 x17 +1 x33 +1 x34 +1 x50 +1 x51 +1 x66 +1 x67 +1 x83 +1 x84 +1 x100 +1 x101 +1 x116 +1 x117 +1 x118 +1 x133 +1 x134 +1 x150 +1 x151 +1 x167 +1 x168 +1 x183 +1 x184 +1 x200 +1 x201 +1 x217 +1 x218 +1 x233 +1 x234 +1 x250 +1 x251 +1 x267 +1 x268 +1 x283 +1 x284 +1 x285 +1 x300 +1 x301 +1 x317 +1 x318 +1 x334 +1 x335 +1 x350 +1 x351 +1 x367 +1 x368 +1 x384 +1 x385 +1 x400 >= 1 ;
-1 x1 -1 x16 -1 x17 -1 x33 -1 x34 -1 x50 -1 x51 -1 x66 -1 x67 -1 x83 -1 x84 -1 x100 -1 x101 -1 x116 -1 x117 -1 x118 -1 x133 -1 x134 -1 x150 -1 x151 -1 x167 -1 x168 -1 x183 -1 x184 -1 x200 -1 x201 -1 x217 -1 x218 -1 x233 -1 x234 -1 x250 -1 x251 -1 x267 -1 x268 -1 x283 -1 x284 -1 x285 -1 x300 -1 x301 -1 x317 -1 x318 -1 x334 -1 x335 -1 x350 -1 x351 -1 x367 -1 x368 -1 x384 -1 x385 -1 x400 -14 x424 >= -15 ;
+1 x1 +1 x16 +1 x17 +1 x32 +1 x33 +1 x48 +1 x49 +1 x64 +1 x65 +1 x80 +1 x81 +1 x96 +1 x97 +1 x112 +1 x113 +1 x128 +1 x129 +1 x144 +1 x145 +1 x160 +1 x161 +1 x176 +1 x177 +1 x192 +1 x193 +1 x208 +1 x209 +1 x224 +1 x225 +1 x240 +1 x241 +1 x256 +1 x257 +1 x272 +1 x273 +1 x288 +1 x289 +1 x304 +1 x305 +1 x320 +1 x321 +1 x336 +1 x337 +1 x352 +1 x353 +1 x368 +1 x369 +1 x384 +1 x385 +1 x400 >= 1 ;
-1 x1 -1 x16 -1 x17 -1 x32 -1 x33 -1 x48 -1 x49 -1 x64 -1 x65 -1 x80 -1 x81 -1 x96 -1 x97 -1 x112 -1 x113 -1 x128 -1 x129 -1 x144 -1 x145 -1 x160 -1 x161 -1 x176 -1 x177 -1 x192 -1 x193 -1 x208 -1 x209 -1 x224 -1 x225 -1 x240 -1 x241 -1 x256 -1 x257 -1 x272 -1 x273 -1 x288 -1 x289 -1 x304 -1 x305 -1 x320 -1 x321 -1 x336 -1 x337 -1 x352 -1 x353 -1 x368 -1 x369 -1 x384 -1 x385 -1 x400 -14 x425 >= -15 ;
+1 x15 +1 x16 +1 x30 +1 x31 +1 x46 +1 x47 +1 x61 +1 x62 +1 x77 +1 x78 +1 x92 +1 x93 +1 x107 +1 x108 +1 x123 +1 x124 +1 x138 +1 x139 +1 x154 +1 x155 +1 x169 +1 x170 +1 x185 +1 x186 +1 x200 +1 x201 +1 x215 +1 x216 +1 x231 +1 x232 +1 x246 +1 x247 +1 x262 +1 x263 +1 x277 +1 x278 +1 x293 +1 x294 +1 x308 +1 x309 +1 x323 +1 x324 +1 x339 +1 x340 +1 x354 +1 x355 +1 x370 +1 x371 +1 x385 +1 x386 >= 1 ;
-1 x15 -1 x16 -1 x30 -1 x31 -1 x46 -1 x47 -1 x61 -1 x62 -1 x77 -1 x78 -1 x92 -1 x93 -1 x107 -1 x108 -1 x123 -1 x124 -1 x138 -1 x139 -1 x154 -1 x155 -1 x169 -1 x170 -1 x185 -1 x186 -1 x200 -1 x201 -1 x215 -1 x216 -1 x231 -1 x232 -1 x246 -1 x247 -1 x262 -1 x263 -1 x277 -1 x278 -1 x293 -1 x294 -1 x308 -1 x309 -1 x323 -1 x324 -1 x339 -1 x340 -1 x354 -1 x355 -1 x370 -1 x371 -1 x385 -1 x386 -14 x426 >= -15 ;
+1 x14 +1 x15 +1 x29 +1 x30 +1 x44 +1 x45 +1 x59 +1 x60 +1 x74 +1 x75 +1 x89 +1 x90 +1 x104 +1 x118 +1 x119 +1 x133 +1 x134 +1 x148 +1 x149 +1 x163 +1 x164 +1 x178 +1 x179 +1 x193 +1 x194 +1 x207 +1 x208 +1 x222 +1 x223 +1 x237 +1 x238 +1 x252 +1 x253 +1 x267 +1 x268 +1 x282 +1 x283 +1 x297 +1 x311 +1 x312 +1 x326 +1 x327 +1 x341 +1 x342 +1 x356 +1 x357 +1 x371 +1 x372 +1 x386 +1 x387 >= 1 ;
-1 x14 -1 x15 -1 x29 -1 x30 -1 x44 -1 x45 -1 x59 -1 x60 -1 x74 -1 x75 -1 x89 -1 x90 -1 x104 -1 x118 -1 x119 -1 x133 -1 x134 -1 x148 -1 x149 -1 x163 -1 x164 -1 x178 -1 x179 -1 x193 -1 x194 -1 x207 -1 x208 -1 x222 -1 x223 -1 x237 -1 x238 -1 x252 -1 x253 -1 x267 -1 x268 -1 x282 -1 x283 -1 x297 -1 x311 -1 x312 -1 x326 -1 x327 -1 x341 -1 x342 -1 x356 -1 x357 -1 x371 -1 x372 -1 x386 -1 x387 -14 x427 >= -15 ;
+1 x14 +1 x15 +1 x28 +1 x29 +1 x43 +1 x57 +1 x58 +1 x71 +1 x72 +1 x86 +1 x100 +1 x101 +1 x114 +1 x115 +1 x128 +1 x129 +1 x143 +1 x144 +1 x157 +1 x158 +1 x171 +1 x172 +1 x186 +1 x187 +1 x200 +1 x201 +1 x214 +1 x215 +1 x229 +1 x230 +1 x243 +1 x244 +1 x257 +1 x258 +1 x272 +1 x273 +1 x286 +1 x287 +1 x300 +1 x301 +1 x315 +1 x329 +1 x330 +1 x343 +1 x344 +1 x358 +1 x372 +1 x373 +1 x386 +1 x387 >= 1 ;
-1 x14 -1 x15 -1 x28 -1 x29 -1 x43 -1 x57 -1 x58 -1 x71 -1 x72 -1 x86 -1 x100 -1 x101 -1 x114 -1 x115 -1 x128 -1 x129 -1 x143 -1 x144 -1 x157 -1 x158 -1 x171 -1 x172 -1 x186 -1 x187 -1 x200 -1 x201 -1 x214 -1 x215 -1 x229 -1 x230 -1 x243 -1 x244 -1 x257 -1 x258 -1 x272 -1 x273 -1 x286 -1 x287 -1 x300 -1 x301 -1 x315 -1 x329 -1 x330 -1 x343 -1 x344 -1 x358 -1 x372 -1 x373 -1 x386 -1 x387 -14 x428 >= -15 ;
+1 x13 +1 x14 +1 x27 +1 x28 +1 x41 +1 x42 +1 x55 +1 x56 +1 x69 +1 x70 +1 x83 +1 x96 +1 x97 +1 x110 +1 x111 +1 x124 +1 x125 +1 x138 +1 x139 +1 x152 +1 x166 +1 x179 +1 x180 +1 x193 +1 x194 +1 x207 +1 x208 +1 x221 +1 x222 +1 x235 +1 x249 +1 x262 +1 x263 +1 x276 +1 x277 +1 x290 +1 x291 +1 x304 +1 x305 +1 x318 +1 x331 +1 x332 +1 x345 +1 x346 +1 x359 +1 x360 +1 x373 +1 x374 +1 x387 +1 x388 >= 1 ;
-1 x13 -1 x14 -1 x27 -1 x28 -1 x41 -1 x42 -1 x55 -1 x56 -1 x69 -1 x70 -1 x83 -1 x96 -1 x97 -1 x110 -1 x111 -1 x124 -1 x125 -1 x138 -1 x139 -1 x152 -1 x166 -1 x179 -1 x180 -1 x193 -1 x194 -1 x207 -1 x208 -1 x221 -1 x222 -1 x235 -1 x249 -1 x262 -1 x263 -1 x276 -1 x277 -1 x290 -1 x291 -1 x304 -1 x305 -1 x318 -1 x331 -1 x332 -1 x345 -1 x346 -1 x359 -1 x360 -1 x373 -1 x374 -1 x387 -1 x388 -14 x429 >= -15 ;
+1 x13 +1 x14 +1 x26 +1 x27 +1 x40 +1 x53 +1 x54 +1 x66 +1 x67 +1 x80 +1 x81 +1 x93 +1 x94 +1 x107 +1 x120 +1 x121 +1 x133 +1 x134 +1 x147 +1 x160 +1 x161 +1 x173 +1 x174 +1 x187 +1 x200 +1 x201 +1 x214 +1 x227 +1 x228 +1 x240 +1 x241 +1 x254 +1 x267 +1 x268 +1 x280 +1 x281 +1 x294 +1 x307 +1 x308 +1 x320 +1 x321 +1 x334 +1 x335 +1 x347 +1 x348 +1 x361 +1 x374 +1 x375 +1 x387 +1 x388 >= 1 ;
-1 x13 -1 x14 -1 x26 -1 x27 -1 x40 -1 x53 -1 x54 -1 x66 -1 x67 -1 x80 -1 x81 -1 x93 -1 x94 -1 x107 -1 x120 -1 x121 -1 x133 -1 x134 -1 x147 -1 x160 -1 x161 -1 x173 -1 x174 -1 x187 -1 x200 -1 x201 -1 x214 -1 x227 -1 x228 -1 x240 -1 x241 -1 x254 -1 x267 -1 x268 -1 x280 -1 x281 -1 x294 -1 x307 -1 x308 -1 x320 -1 x321 -1 x334 -1 x335 -1 x347 -1 x348 -1 x361 -1 x374 -1 x375 -1 x387 -1 x388 -14 x430 >= -15 ;
+1 x13 +1 x26 +1 x38 +1 x39 +1 x51 +1 x52 +1 x64 +1 x65 +1 x77 +1 x78 +1 x90 +1 x91 +1 x103 +1 x104 +1 x116 +1 x117 +1 x129 +1 x130 +1 x142 +1 x143 +1 x155 +1 x156 +1 x168 +1 x181 +1 x194 +1 x207 +1 x220 +1 x233 +1 x245 +1 x246 +1 x258 +1 x259 +1 x271 +1 x272 +1 x284 +1 x285 +1 x297 +1 x298 +1 x310 +1 x311 +1 x323 +1 x324 +1 x336 +1 x337 +1 x349 +1 x350 +1 x362 +1 x363 +1 x375 +1 x388 >= 1 ;
-1 x13 -1 x26 -1 x38 -1 x39 -1 x51 -1 x52 -1 x64 -1 x65 -1 x77 -1 x78 -1 x90 -1 x91 -1 x103 -1 x104 -1 x116 -1 x117 -1 x129 -1 x130 -1 x142 -1 x143 -1 x155 -1 x156 -1 x168 -1 x181 -1 x194 -1 x207 -1 x220 -1 x233 -1 x245 -1 x246 -1 x258 -1 x259 -1 x271 -1 x272 -1 x284 -1 x285 -1 x297 -1 x298 -1 x310 -1 x311 -1 x323 -1 x324 -1 x336 -1 x337 -1 x349 -1 x350 -1 x362 -1 x363 -1 x375 -1 x388 -14 x431 >= -15 ;
+1 x12 +1 x13 +1 x25 +1 x37 +1 x38 +1 x50 +1 x62 +1 x63 +1 x75 +1 x87 +1 x88 +1 x100 +1 x101 +1 x112 +1 x113 +1 x125 +1 x126 +1 x138 +1 x150 +1 x151 +1 x163 +1 x175 +1 x176 +1 x188 +1 x200 +1 x201 +1 x213 +1 x225 +1 x226 +1 x238 +1 x250 +1 x251 +1 x263 +1 x275 +1 x276 +1 x288 +1 x289 +1 x300 +1 x301 +1 x313 +1 x314 +1 x326 +1 x338 +1 x339 +1 x351 +1 x363 +1 x364 +1 x376 +1 x388 +1 x389 >= 1 ;
-1 x12 -1 x13 -1 x25 -1 x37 -1 x38 -1 x50 -1 x62 -1 x63 -1 x75 -1 x87 -1 x88 -1 x100 -1 x101 -1 x112 -1 x113 -1 x125 -1 x126 -1 x138 -1 x150 -1 x151 -1 x163 -1 x175 -1 x176 -1 x188 -1 x200 -1 x201 -1 x213 -1 x225 -1 x226 -1 x238 -1 x250 -1 x251 -1 x263 -1 x275 -1 x276 -1 x288 -1 x289 -1 x300 -1 x301 -1 x313 -1 x314 -1 x326 -1 x338 -1 x339 -1 x351 -1 x363 -1 x364 -1 x376 -1 x388 -1 x389 -14 x432 >= -15 ;
+1 x12 +1 x24 +1 x25 +1 x36 +1 x37 +1 x48 +1 x49 +1 x60 +1 x61 +1 x73 +1 x85 +1 x97 +1 x109 +1 x110 +1 x121 +1 x122 +1 x133 +1 x134 +1 x146 +1 x158 +1 x170 +1 x182 +1 x183 +1 x194 +1 x195 +1 x206 +1 x207 +1 x218 +1 x219 +1 x231 +1 x243 +1 x255 +1 x267 +1 x268 +1 x279 +1 x280 +1 x291 +1 x292 +1 x304 +1 x316 +1 x328 +1 x340 +1 x341 +1 x352 +1 x353 +1 x364 +1 x365 +1 x376 +1 x377 +1 x389 >= 1 ;
-1 x12 -1 x24 -1 x25 -1 x36 -1 x37 -1 x48 -1 x49 -1 x60 -1 x61 -1 x73 -1 x85 -1 x97 -1 x109 -1 x110 -1 x121 -1 x122 -1 x133 -1 x134 -1 x146 -1 x158 -1 x170 -1 x182 -1 x183 -1 x194 -1 x195 -1 x206 -1 x207 -1 x218 -1 x219 -1 x231 -1 x243 -1 x255 -1 x267 -1 x268 -1 x279 -1 x280 -1 x291 -1 x292 -1 x304 -1 x316 -1 x328 -1 x340 -1 x341 -1 x352 -1 x353 -1 x364 -1 x365 -1 x376 -1 x377 -1 x389 -14 x433 >= -15 ;
+1 x12 +1 x23 +1 x24 +1 x35 +1 x36 +1 x47 +1 x59 +1 x71 +1 x82 +1 x83 +1 x94 +1 x95 +1 x106 +1 x118 +1 x129 +1 x130 +1 x141 +1 x142 +1 x153 +1 x154 +1 x165 +1 x177 +1 x188 +1 x189 +1 x200 +1 x201 +1 x212 +1 x213 +1 x224 +1 x236 +1 x247 +1 x248 +1 x259 +1 x260 +1 x271 +1 x272 +1 x283 +1 x295 +1 x306 +1 x307 +1 x318 +1 x319 +1 x330 +1 x342 +1 x354 +1 x365 +1 x366 +1 x377 +1 x378 +1 x389 >= 1 ;
-1 x12 -1 x23 -1 x24 -1 x35 -1 x36 -1 x47 -1 x59 -1 x71 -1 x82 -1 x83 -1 x94 -1 x95 -1 x106 -1 x118 -1 x129 -1 x130 -1 x141 -1 x142 -1 x153 -1 x154 -1 x165 -1 x177 -1 x188 -1 x189 -1 x200 -1 x201 -1 x212 -1 x213 -1 x224 -1 x236 -1 x247 -1 x248 -1 x259 -1 x260 -1 x271 -1 x272 -1 x283 -1 x295 -1 x306 -1 x307 -1 x318 -1 x319 -1 x330 -1 x342 -1 x354 -1 x365 -1 x366 -1 x377 -1 x378 -1 x389 -14 x434 >= -15 ;
+1 x11 +1 x12 +1 x23 +1 x34 +1 x35 +1 x46 +1 x57 +1 x58 +1 x69 +1 x80 +1 x91 +1 x92 +1 x103 +1 x114 +1 x115 +1 x126 +1 x137 +1 x138 +1 x149 +1 x160 +1 x161 +1 x172 +1 x183 +1 x184 +1 x195 +1 x206 +1 x217 +1 x218 +1 x229 +1 x240 +1 x241 +1 x252 +1 x263 +1 x264 +1 x275 +1 x286 +1 x287 +1 x298 +1 x309 +1 x310 +1 x321 +1 x332 +1 x343 +1 x344 +1 x355 +1 x366 +1 x367 +1 x378 +1 x389 +1 x390 >= 1 ;
-1 x11 -1 x12 -1 x23 -1 x34 -1 x35 -1 x46 -1 x57 -1 x58 -1 x69 -1 x80 -1 x91 -1 x92 -1 x103 -1 x114 -1 x115 -1 x126 -1 x137 -1 x138 -1 x149 -1 x160 -1 x161 -1 x172 -1 x183 -1 x184 -1 x195 -1 x206 -1 x217 -1 x218 -1 x229 -1 x240 -1 x241 -1 x252 -1 x263 -1 x264 -1 x275 -1 x286 -1 x287 -1 x298 -1 x309 -1 x310 -1 x321 -1 x332 -1 x343 -1 x344 -1 x355 -1 x366 -1 x367 -1 x378 -1 x389 -1 x390 -14 x435 >= -15 ;
+1 x11 +1 x22 +1 x33 +1 x34 +1 x44 +1 x45 +1 x55 +1 x56 +1 x67 +1 x78 +1 x89 +1 x100 +1 x111 +1 x112 +1 x122 +1 x123 +1 x133 +1 x134 +1 x145 +1 x156 +1 x167 +1 x178 +1 x189 +1 x190 +1 x200 +1 x201 +1 x211 +1 x212 +1 x223 +1 x234 +1 x245 +1 x256 +1 x267 +1 x268 +1 x278 +1 x279 +1 x289 +1 x290 +1 x301 +1 x312 +1 x323 +1 x334 +1 x345 +1 x346 +1 x356 +1 x357 +1 x367 +1 x368 +1 x379 +1 x390 >= 1 ;
-1 x11 -1 x22 -1 x33 -1 x34 -1 x44 -1 x45 -1 x55 -1 x56 -1 x67 -1 x78 -1 x89 -1 x100 -1 x111 -1 x112 -1 x122 -1 x123 -1 x133 -1 x134 -1 x145 -1 x156 -1 x167 -1 x178 -1 x189 -1 x190 -1 x200 -1 x201 -1 x211 -1 x212 -1 x223 -1 x234 -1 x245 -1 x256 -1 x267 -1 x268 -1 x278 -1 x279 -1 x289 -1 x290 -1 x301 -1 x312 -1 x323 -1 x334 -1 x345 -1 x346 -1 x356 -1 x357 -1 x367 -1 x368 -1 x379 -1 x390 -14 x436 >= -15 ;
+1 x11 +1 x21 +1 x22 +1 x32 +1 x33 +1 x43 +1 x44 +1 x54 +1 x65 +1 x76 +1 x87 +1 x97 +1 x98 +1 x108 +1 x109 +1 x119 +1 x130 +1 x141 +1 x152 +1 x162 +1 x163 +1 x173 +1 x174 +1 x184 +1 x195 +1 x206 +1 x217 +1 x227 +1 x228 +1 x238 +1 x239 +1 x249 +1 x260 +1 x271 +1 x282 +1 x292 +1 x293 +1 x303 +1 x304 +1 x314 +1 x325 +1 x336 +1 x347 +1 x357 +1 x358 +1 x368 +1 x369 +1 x379 +1 x380 +1 x390 >= 1 ;
-1 x11 -1 x21 -1 x22 -1 x32 -1 x33 -1 x43 -1 x44 -1 x54 -1 x65 -1 x76 -1 x87 -1 x97 -1 x98 -1 x108 -1 x109 -1 x119 -1 x130 -1 x141 -1 x152 -1 x162 -1 x163 -1 x173 -1 x174 -1 x184 -1 x195 -1 x206 -1 x217 -1 x227 -1 x228 -1 x238 -1 x239 -1 x249 -1 x260 -1 x271 -1 x282 -1 x292 -1 x293 -1 x303 -1 x304 -1 x314 -1 x325 -1 x336 -1 x347 -1 x357 -1 x358 -1 x368 -1 x369 -1 x379 -1 x380 -1 x390 -14 x437 >= -15 ;
+1 x10 +1 x11 +1 x21 +1 x31 +1 x32 +1 x42 +1 x53 +1 x63 +1 x74 +1 x84 +1 x85 +1 x95 +1 x105 +1 x106 +1 x116 +1 x126 +1 x127 +1 x137 +1 x148 +1 x158 +1 x169 +1 x179 +1 x180 +1 x190 +1 x200 +1 x201 +1 x211 +1 x221 +1 x222 +1 x232 +1 x243 +1 x253 +1 x264 +1 x274 +1 x275 +1 x285 +1 x295 +1 x296 +1 x306 +1 x316 +1 x317 +1 x327 +1 x338 +1 x348 +1 x359 +1 x369 +1 x370 +1 x380 +1 x390 +1 x391 >= 1 ;
-1 x10 -1 x11 -1 x21 -1 x31 -1 x32 -1 x42 -1 x53 -1 x63 -1 x74 -1 x84 -1 x85 -1 x95 -1 x105 -1 x106 -1 x116 -1 x126 -1 x127 -1 x137 -1 x148 -1 x158 -1 x169 -1 x179 -1 x180 -1 x190 -1 x200 -1 x201 -1 x211 -1 x221 -1 x222 -1 x232 -1 x243 -1 x253 -1 x264 -1 x274 -1 x275 -1 x285 -1 x295 -1 x296 -1 x306 -1 x316 -1 x317 -1 x327 -1 x338 -1 x348 -1 x359 -1 x369 -1 x370 -1 x380 -1 x390 -1 x391 -14 x438 >= -15 ;
+1 x10 +1 x20 +1 x21 +1 x31 +1 x41 +1 x51 +1 x52 +1 x62 +1 x72 +1 x82 +1 x92 +1 x93 +1 x103 +1 x113 +1 x123 +1 x124 +1 x134 +1 x144 +1 x154 +1 x164 +1 x165 +1 x175 +1 x185 +1 x195 +1 x196 +1 x205 +1 x206 +1 x216 +1 x226 +1 x236 +1 x237 +1 x247 +1 x257 +1 x267 +1 x277 +1 x278 +1 x288 +1 x298 +1 x308 +1 x309 +1 x319 +1 x329 +1 x339 +1 x349 +1 x350 +1 x360 +1 x370 +1 x380 +1 x381 +1 x391 >= 1 ;
-1 x10 -1 x20 -1 x21 -1 x31 -1 x41 -1 x51 -1 x52 -1 x62 -1 x72 -1 x82 -1 x92 -1 x93 -1 x103 -1 x113 -1 x123 -1 x124 -1 x134 -1 x144 -1 x154 -1 x164 -1 x165 -1 x175 -1 x185 -1 x195 -1 x196 -1 x205 -1 x206 -1 x216 -1 x226 -1 x236 -1 x237 -1 x247 -1 x257 -1 x267 -1 x277 -1 x278 -1 x288 -1 x298 -1 x308 -1 x309 -1 x319 -1 x329 -1 x339 -1 x349 -1 x350 -1 x360 -1 x370 -1 x380 -1 x381 -1 x391 -14 x439 >= -15 ;
+1 x10 +1 x20 +1 x30 +1 x40 +1 x50 +1 x60 +1 x70 +1 x80 +1 x90 +1 x100 +1 x110 +1 x120 +1 x130 +1 x140 +1 x150 +1 x151 +1 x160 +1 x161 +1 x170 +1 x171 +1 x180 +1 x181 +1 x190 +1 x191 +1 x200 +1 x201 +1 x210 +1 x211 +1 x220 +1 x221 +1 x230 +1 x231 +1 x240 +1 x241 +1 x250 +1 x251 +1 x261 +1 x271 +1 x281 +1 x291 +1 x301 +1 x311 +1 x321 +1 x331 +1 x341 +1 x351 +1 x361 +1 x371 +1 x381 +1 x391 >= 1 ;
-1 x10 -1 x20 -1 x30 -1 x40 -1 x50 -1 x60 -1 x70 -1 x80 -1 x90 -1 x100 -1 x110 -1 x120 -1 x130 -1 x140 -1 x150 -1 x151 -1 x160 -1 x161 -1 x170 -1 x171 -1 x180 -1 x181 -1 x190 -1 x191 -1 x200 -1 x201 -1 x210 -1 x211 -1 x220 -1 x221 -1 x230 -1 x231 -1 x240 -1 x241 -1 x250 -1 x251 -1 x261 -1 x271 -1 x281 -1 x291 -1 x301 -1 x311 -1 x321 -1 x331 -1 x341 -1 x351 -1 x361 -1 x371 -1 x381 -1 x391 -14 x440 >= -15 ;
+1 x10 +1 x19 +1 x20 +1 x29 +1 x39 +1 x49 +1 x59 +1 x68 +1 x69 +1 x78 +1 x88 +1 x98 +1 x107 +1 x108 +1 x117 +1 x127 +1 x137 +1 x147 +1 x156 +1 x157 +1 x166 +1 x176 +1 x186 +1 x195 +1 x196 +1 x205 +1 x206 +1 x215 +1 x225 +1 x235 +1 x244 +1 x245 +1 x254 +1 x264 +1 x274 +1 x284 +1 x293 +1 x294 +1 x303 +1 x313 +1 x323 +1 x332 +1 x333 +1 x342 +1 x352 +1 x362 +1 x372 +1 x381 +1 x382 +1 x391 >= 1 ;
-1 x10 -1 x19 -1 x20 -1 x29 -1 x39 -1 x49 -1 x59 -1 x68 -1 x69 -1 x78 -1 x88 -1 x98 -1 x107 -1 x108 -1 x117 -1 x127 -1 x137 -1 x147 -1 x156 -1 x157 -1 x166 -1 x176 -1 x186 -1 x195 -1 x196 -1 x205 -1 x206 -1 x215 -1 x225 -1 x235 -1 x244 -1 x245 -1 x254 -1 x264 -1 x274 -1 x284 -1 x293 -1 x294 -1 x303 -1 x313 -1 x323 -1 x332 -1 x333 -1 x342 -1 x352 -1 x362 -1 x372 -1 x381 -1 x382 -1 x391 -14 x441 >= -15 ;
+1 x9 +1 x10 +1 x19 +1 x29 +1 x38 +1 x48 +1 x57 +1 x67 +1 x76 +1 x86 +1 x95 +1 x96 +1 x105 +1 x114 +1 x115 +1 x124 +1 x134 +1 x143 +1 x153 +1 x162 +1 x172 +1 x181 +1 x182 +1 x191 +1 x200 +1 x201 +1 x210 +1 x219 +1 x220 +1 x229 +1 x239 +1 x248 +1 x258 +1 x267 +1 x277 +1 x286 +1 x287 +1 x296 +1 x305 +1 x306 +1 x315 +1 x325 +1 x334 +1 x344 +1 x353 +1 x363 +1 x372 +1 x382 +1 x391 +1 x392 >= 1 ;
-1 x9 -1 x10 -1 x19 -1 x29 -1 x38 -1 x48 -1 x57 -1 x67 -1 x76 -1 x86 -1 x95 -1 x96 -1 x105 -1 x114 -1 x115 -1 x124 -1 x134 -1 x143 -1 x153 -1 x162 -1 x172 -1 x181 -1 x182 -1 x191 -1 x200 -1 x201 -1 x210 -1 x219 -1 x220 -1 x229 -1 x239 -1 x248 -1 x258 -1 x267 -1 x277 -1 x286 -1 x287 -1 x296 -1 x305 -1 x306 -1 x315 -1 x325 -1 x334 -1 x344 -1 x353 -1 x363 -1 x372 -1 x382 -1 x391 -1 x392 -14 x442 >= -15 ;
+1 x9 +1 x19 +1 x28 +1 x37 +1 x47 +1 x56 +1 x65 +1 x75 +1 x84 +1 x93 +1 x102 +1 x103 +1 x112 +1 x121 +1 x130 +1 x131 +1 x140 +1 x149 +1 x158 +1 x159 +1 x168 +1 x177 +1 x186 +1 x187 +1 x196 +1 x205 +1 x214 +1 x215 +1 x224 +1 x233 +1 x242 +1 x243 +1 x252 +1 x261 +1 x270 +1 x271 +1 x280 +1 x289 +1 x298 +1 x299 +1 x308 +1 x317 +1 x326 +1 x336 +1 x345 +1 x354 +1 x364 +1 x373 +1 x382 +1 x392 >= 1 ;
-1 x9 -1 x19 -1 x28 -1 x37 -1 x47 -1 x56 -1 x65 -1 x75 -1 x84 -1 x93 -1 x102 -1 x103 -1 x112 -1 x121 -1 x130 -1 x131 -1 x140 -1 x149 -1 x158 -1 x159 -1 x168 -1 x177 -1 x186 -1 x187 -1 x196 -1 x205 -1 x214 -1 x215 -1 x224 -1 x233 -1 x242 -1 x243 -1 x252 -1 x261 -1 x270 -1 x271 -1 x280 -1 x289 -1 x298 -1 x299 -1 x308 -1 x317 -1 x326 -1 x336 -1 x345 -1 x354 -1 x364 -1 x373 -1 x382 -1 x392 -14 x443 >= -15 ;
+1 x9 +1 x18 +1 x27 +1 x36 +1 x37 +1 x45 +1 x46 +1 x55 +1 x64 +1 x73 +1 x82 +1 x91 +1 x100 +1 x109 +1 x118 +1 x119 +1 x128 +1 x137 +1 x146 +1 x155 +1 x164 +1 x173 +1 x182 +1 x191 +1 x200 +1 x201 +1 x210 +1 x219 +1 x228 +1 x237 +1 x246 +1 x255 +1 x264 +1 x273 +1 x282 +1 x283 +1 x292 +1 x301 +1 x310 +1 x319 +1 x328 +1 x337 +1 x346 +1 x355 +1 x356 +1 x364 +1 x365 +1 x374 +1 x383 +1 x392 >= 1 ;
-1 x9 -1 x18 -1 x27 -1 x36 -1 x37 -1 x45 -1 x46 -1 x55 -1 x64 -1 x73 -1 x82 -1 x91 -1 x100 -1 x109 -1 x118 -1 x119 -1 x128 -1 x137 -1 x146 -1 x155 -1 x164 -1 x173 -1 x182 -1 x191 -1 x200 -1 x201 -1 x210 -1 x219 -1 x228 -1 x237 -1 x246 -1 x255 -1 x264 -1 x273 -1 x282 -1 x283 -1 x292 -1 x301 -1 x310 -1 x319 -1 x328 -1 x337 -1 x346 -1 x355 -1 x356 -1 x364 -1 x365 -1 x374 -1 x383 -1 x392 -14 x444 >= -15 ;
+1 x9 +1 x18 +1 x27 +1 x36 +1 x44 +1 x45 +1 x53 +1 x54 +1 x62 +1 x71 +1 x80 +1 x89 +1 x98 +1 x107 +1 x116 +1 x125 +1 x134 +1 x143 +1 x151 +1 x152 +1 x160 +1 x169 +1 x178 +1 x187 +1 x196 +1 x205 +1 x214 +1 x223 +1 x232 +1 x241 +1 x249 +1 x250 +1 x258 +1 x267 +1 x276 +1 x285 +1 x294 +1 x303 +1 x312 +1 x321 +1 x330 +1 x339 +1 x347 +1 x348 +1 x356 +1 x357 +1 x365 +1 x374 +1 x383 +1 x392 >= 1 ;
-1 x9 -1 x18 -1 x27 -1 x36 -1 x44 -1 x45 -1 x53 -1 x54 -1 x62 -1 x71 -1 x80 -1 x89 -1 x98 -1 x107 -1 x116 -1 x125 -1 x134 -1 x143 -1 x151 -1 x152 -1 x160 -1 x169 -1 x178 -1 x187 -1 x196 -1 x205 -1 x214 -1 x223 -1 x232 -1 x241 -1 x249 -1 x250 -1 x258 -1 x267 -1 x276 -1 x285 -1 x294 -1 x303 -1 x312 -1 x321 -1 x330 -1 x339 -1 x347 -1 x348 -1 x356 -1 x357 -1 x365 -1 x374 -1 x383 -1 x392 -14 x445 >= -15 ;
+1 x9 +1 x17 +1 x26 +1 x35 +1 x44 +1 x52 +1 x61 +1 x70 +1 x78 +1 x79 +1 x87 +1 x96 +1 x105 +1 x113 +1 x122 +1 x131 +1 x139 +1 x140 +1 x148 +1 x157 +1 x166 +1 x174 +1 x183 +1 x192 +1 x200 +1 x201 +1 x209 +1 x218 +1 x227 +1 x235 +1 x244 +1 x253 +1 x261 +1 x262 +1 x270 +1 x279 +1 x288 +1 x296 +1 x305 +1 x314 +1 x322 +1 x323 +1 x331 +1 x340 +1 x349 +1 x357 +1 x366 +1 x375 +1 x384 +1 x392 >= 1 ;
-1 x9 -1 x17 -1 x26 -1 x35 -1 x44 -1 x52 -1 x61 -1 x70 -1 x78 -1 x79 -1 x87 -1 x96 -1 x105 -1 x113 -1 x122 -1 x131 -1 x139 -1 x140 -1 x148 -1 x157 -1 x166 -1 x174 -1 x183 -1 x192 -1 x200 -1 x201 -1 x209 -1 x218 -1 x227 -1 x235 -1 x244 -1 x253 -1 x261 -1 x262 -1 x270 -1 x279 -1 x288 -1 x296 -1 x305 -1 x314 -1 x322 -1 x323 -1 x331 -1 x340 -1 x349 -1 x357 -1 x366 -1 x375 -1 x384 -1 x392 -14 x446 >= -15 ;
+1 x8 +1 x9 +1 x17 +1 x26 +1 x34 +1 x43 +1 x51 +1 x60 +1 x68 +1 x77 +1 x85 +1 x94 +1 x102 +1 x111 +1 x119 +1 x128 +1 x136 +1 x137 +1 x145 +1 x154 +1 x162 +1 x171 +1 x179 +1 x188 +1 x196 +1 x205 +1 x213 +1 x222 +1 x230 +1 x239 +1 x247 +1 x256 +1 x264 +1 x265 +1 x273 +1 x282 +1 x290 +1 x299 +1 x307 +1 x316 +1 x324 +1 x333 +1 x341 +1 x350 +1 x358 +1 x367 +1 x375 +1 x384 +1 x392 +1 x393 >= 1 ;
-1 x8 -1 x9 -1 x17 -1 x26 -1 x34 -1 x43 -1 x51 -1 x60 -1 x68 -1 x77 -1 x85 -1 x94 -1 x102 -1 x111 -1 x119 -1 x128 -1 x136 -1 x137 -1 x145 -1 x154 -1 x162 -1 x171 -1 x179 -1 x188 -1 x196 -1 x205 -1 x213 -1 x222 -1 x230 -1 x239 -1 x247 -1 x256 -1 x264 -1 x265 -1 x273 -1 x282 -1 x290 -1 x299 -1 x307 -1 x316 -1 x324 -1 x333 -1 x341 -1 x350 -1 x358 -1 x367 -1 x375 -1 x384 -1 x392 -1 x393 -14 x447 >= -15 ;
+1 x8 +1 x17 +1 x25 +1 x33 +1 x42 +1 x50 +1 x58 +1 x59 +1 x67 +1 x75 +1 x84 +1 x92 +1 x100 +1 x109 +1 x117 +1 x125 +1 x134 +1 x142 +1 x150 +1 x159 +1 x167 +1 x175 +1 x184 +1 x192 +1 x200 +1 x201 +1 x209 +1 x217 +1 x226 +1 x234 +1 x242 +1 x251 +1 x259 +1 x267 +1 x276 +1 x284 +1 x292 +1 x301 +1 x309 +1 x317 +1 x326 +1 x334 +1 x342 +1 x343 +1 x351 +1 x359 +1 x368 +1 x376 +1 x384 +1 x393 >= 1 ;
-1 x8 -1 x17 -1 x25 -1 x33 -1 x42 -1 x50 -1 x58 -1 x59 -1 x67 -1 x75 -1 x84 -1 x92 -1 x100 -1 x109 -1 x117 -1 x125 -1 x134 -1 x142 -1 x150 -1 x159 -1 x167 -1 x175 -1 x184 -1 x192 -1 x200 -1 x201 -1 x209 -1 x217 -1 x226 -1 x234 -1 x242 -1 x251 -1 x259 -1 x267 -1 x276 -1 x284 -1 x292 -1 x301 -1 x309 -1 x317 -1 x326 -1 x334 -1 x342 -1 x343 -1 x351 -1 x359 -1 x368 -1 x376 -1 x384 -1 x393 -14 x448 >= -15 ;
+1 x8 +1 x16 +1 x25 +1 x33 +1 x41 +1 x49 +1 x57 +1 x65 +1 x74 +1 x82 +1 x90 +1 x98 +1 x106 +1 x115 +1 x123 +1 x131 +1 x139 +1 x147 +1 x155 +1 x156 +1 x164 +1 x172 +1 x180 +1 x188 +1 x196 +1 x205 +1 x213 +1 x221 +1 x229 +1 x237 +1 x245 +1 x246 +1 x254 +1 x262 +1 x270 +1 x278 +1 x286 +1 x295 +1 x303 +1 x311 +1 x319 +1 x327 +1 x336 +1 x344 +1 x352 +1 x360 +1 x368 +1 x376 +1 x385 +1 x393 >= 1 ;
-1 x8 -1 x16 -1 x25 -1 x33 -1 x41 -1 x49 -1 x57 -1 x65 -1 x74 -1 x82 -1 x90 -1 x98 -1 x106 -1 x115 -1 x123 -1 x131 -1 x139 -1 x147 -1 x155 -1 x156 -1 x164 -1 x172 -1 x180 -1 x188 -1 x196 -1 x205 -1 x213 -1 x221 -1 x229 -1 x237 -1 x245 -1 x246 -1 x254 -1 x262 -1 x270 -1 x278 -1 x286 -1 x295 -1 x303 -1 x311 -1 x319 -1 x327 -1 x336 -1 x344 -1 x352 -1 x360 -1 x368 -1 x376 -1 x385 -1 x393 -14 x449 >= -15 ;
+1 x8 +1 x16 +1 x24 +1 x32 +1 x40 +1 x48 +1 x56 +1 x64 +1 x72 +1 x80 +1 x88 +1 x96 +1 x104 +1 x112 +1 x120 +1 x128 +1 x136 +1 x144 +1 x152 +1 x160 +1 x168 +1 x176 +1 x184 +1 x192 +1 x200 +1 x201 +1 x209 +1 x217 +1 x225 +1 x233 +1 x241 +1 x249 +1 x257 +1 x265 +1 x273 +1 x281 +1 x289 +1 x297 +1 x305 +1 x313 +1 x321 +1 x329 +1 x337 +1 x345 +1 x353 +1 x361 +1 x369 +1 x377 +1 x385 +1 x393 >= 1 ;
-1 x8 -1 x16 -1 x24 -1 x32 -1 x40 -1 x48 -1 x56 -1 x64 -1 x72 -1 x80 -1 x88 -1 x96 -1 x104 -1 x112 -1 x120 -1 x128 -1 x136 -1 x144 -1 x152 -1 x160 -1 x168 -1 x176 -1 x184 -1 x192 -1 x200 -1 x201 -1 x209 -1 x217 -1 x225 -1 x233 -1 x241 -1 x249 -1 x257 -1 x265 -1 x273 -1 x281 -1 x289 -1 x297 -1 x305 -1 x313 -1 x321 -1 x329 -1 x337 -1 x345 -1 x353 -1 x361 -1 x369 -1 x377 -1 x385 -1 x393 -14 x450 >= -15 ;
+1 x8 +1 x16 +1 x24 +1 x31 +1 x39 +1 x47 +1 x55 +1 x63 +1 x71 +1 x79 +1 x86 +1 x94 +1 x102 +1 x110 +1 x118 +1 x126 +1 x134 +1 x142 +1 x149 +1 x157 +1 x165 +1 x173 +1 x181 +1 x189 +1 x197 +1 x204 +1 x212 +1 x220 +1 x228 +1 x236 +1 x244 +1 x252 +1 x259 +1 x267 +1 x275 +1 x283 +1 x291 +1 x299 +1 x307 +1 x315 +1 x322 +1 x330 +1 x338 +1 x346 +1 x354 +1 x362 +1 x370 +1 x377 +1 x385 +1 x393 >= 1 ;
-1 x8 -1 x16 -1 x24 -1 x31 -1 x39 -1 x47 -1 x55 -1 x63 -1 x71 -1 x79 -1 x86 -1 x94 -1 x102 -1 x110 -1 x118 -1 x126 -1 x134 -1 x142 -1 x149 -1 x157 -1 x165 -1 x173 -1 x181 -1 x189 -1 x197 -1 x204 -1 x212 -1 x220 -1 x228 -1 x236 -1 x244 -1 x252 -1 x259 -1 x267 -1 x275 -1 x283 -1 x291 -1 x299 -1 x307 -1 x315 -1 x322 -1 x330 -1 x338 -1 x346 -1 x354 -1 x362 -1 x370 -1 x377 -1 x385 -1 x393 -14 x451 >= -15 ;
+1 x8 +1 x15 +1 x23 +1 x31 +1 x39 +1 x46 +1 x54 +1 x62 +1 x69 +1 x77 +1 x85 +1 x93 +1 x100 +1 x108 +1 x116 +1 x123 +1 x131 +1 x139 +1 x147 +1 x154 +1 x162 +1 x170 +1 x177 +1 x185 +1 x193 +1 x208 +1 x216 +1 x224 +1 x231 +1 x239 +1 x247 +1 x254 +1 x262 +1 x270 +1 x278 +1 x285 +1 x293 +1 x301 +1 x308 +1 x316 +1 x324 +1 x332 +1 x339 +1 x347 +1 x355 +1 x362 +1 x370 +1 x378 +1 x386 +1 x393 >= 1 ;
-1 x8 -1 x15 -1 x23 -1 x31 -1 x39 -1 x46 -1 x54 -1 x62 -1 x69 -1 x77 -1 x85 -1 x93 -1 x100 -1 x108 -1 x116 -1 x123 -1 x131 -1 x139 -1 x147 -1 x154 -1 x162 -1 x170 -1 x177 -1 x185 -1 x193 -1 x208 -1 x216 -1 x224 -1 x231 -1 x239 -1 x247 -1 x254 -1 x262 -1 x270 -1 x278 -1 x285 -1 x293 -1 x301 -1 x308 -1 x316 -1 x324 -1 x332 -1 x339 -1 x347 -1 x355 -1 x362 -1 x370 -1 x378 -1 x386 -1 x393 -14 x452 >= -15 ;
+1 x8 +1 x15 +1 x23 +1 x30 +1 x38 +1 x45 +1 x53 +1 x61 +1 x68 +1 x76 +1 x83 +1 x91 +1 x98 +1 x106 +1 x121 +1 x129 +1 x136 +1 x144 +1 x151 +1 x159 +1 x166 +1 x174 +1 x182 +1 x189 +1 x197 +1 x204 +1 x212 +1 x219 +1 x227 +1 x235 +1 x242 +1 x250 +1 x257 +1 x265 +1 x272 +1 x280 +1 x295 +1 x303 +1 x310 +1 x318 +1 x325 +1 x333 +1 x340 +1 x348 +1 x356 +1 x363 +1 x371 +1 x378 +1 x386 +1 x393 >= 1 ;
-1 x8 -1 x15 -1 x23 -1 x30 -1 x38 -1 x45 -1 x53 -1 x61 -1 x68 -1 x76 -1 x83 -1 x91 -1 x98 -1 x106 -1 x121 -1 x129 -1 x136 -1 x144 -1 x151 -1 x159 -1 x166 -1 x174 -1 x182 -1 x189 -1 x197 -1 x204 -1 x212 -1 x219 -1 x227 -1 x235 -1 x242 -1 x250 -1 x257 -1 x265 -1 x272 -1 x280 -1 x295 -1 x303 -1 x310 -1 x318 -1 x325 -1 x333 -1 x340 -1 x348 -1 x356 -1 x363 -1 x371 -1 x378 -1 x386 -1 x393 -14 x453 >= -15 ;
+1 x7 +1 x15 +1 x22 +1 x30 +1 x37 +1 x45 +1 x52 +1 x59 +1 x67 +1 x74 +1 x82 +1 x89 +1 x97 +1 x104 +1 x111 +1 x119 +1 x126 +1 x134 +1 x141 +1 x156 +1 x163 +1 x171 +1 x178 +1 x186 +1 x193 +1 x208 +1 x215 +1 x223 +1 x230 +1 x238 +1 x245 +1 x260 +1 x267 +1 x275 +1 x282 +1 x290 +1 x297 +1 x304 +1 x312 +1 x319 +1 x327 +1 x334 +1 x342 +1 x349 +1 x356 +1 x364 +1 x371 +1 x379 +1 x386 +1 x394 >= 1 ;
-1 x7 -1 x15 -1 x22 -1 x30 -1 x37 -1 x45 -1 x52 -1 x59 -1 x67 -1 x74 -1 x82 -1 x89 -1 x97 -1 x104 -1 x111 -1 x119 -1 x126 -1 x134 -1 x141 -1 x156 -1 x163 -1 x171 -1 x178 -1 x186 -1 x193 -1 x208 -1 x215 -1 x223 -1 x230 -1 x238 -1 x245 -1 x260 -1 x267 -1 x275 -1 x282 -1 x290 -1 x297 -1 x304 -1 x312 -1 x319 -1 x327 -1 x334 -1 x342 -1 x349 -1 x356 -1 x364 -1 x371 -1 x379 -1 x386 -1 x394 -14 x454 >= -15 ;
+1 x7 +1 x15 +1 x22 +1 x29 +1 x36 +1 x44 +1 x51 +1 x58 +1 x66 +1 x73 +1 x80 +1 x95 +1 x102 +1 x109 +1 x117 +1 x124 +1 x131 +1 x146 +1 x153 +1 x160 +1 x168 +1 x175 +1 x182 +1 x190 +1 x197 +1 x204 +1 x211 +1 x219 +1 x226 +1 x233 +1 x241 +1 x248 +1 x255 +1 x270 +1 x277 +1 x284 +1 x292 +1 x299 +1 x306 +1 x321 +1 x328 +1 x335 +1 x343 +1 x350 +1 x357 +1 x365 +1 x372 +1 x379 +1 x386 +1 x394 >= 1 ;
-1 x7 -1 x15 -1 x22 -1 x29 -1 x36 -1 x44 -1 x51 -1 x58 -1 x66 -1 x73 -1 x80 -1 x95 -1 x102 -1 x109 -1 x117 -1 x124 -1 x131 -1 x146 -1 x153 -1 x160 -1 x168 -1 x175 -1 x182 -1 x190 -1 x197 -1 x204 -1 x211 -1 x219 -1 x226 -1 x233 -1 x241 -1 x248 -1 x255 -1 x270 -1 x277 -1 x284 -1 x292 -1 x299 -1 x306 -1 x321 -1 x328 -1 x335 -1 x343 -1 x350 -1 x357 -1 x365 -1 x372 -1 x379 -1 x386 -1 x394 -14 x455 >= -15 ;
+1 x7 +1 x14 +1 x29 +1 x36 +1 x43 +1 x50 +1 x57 +1 x64 +1 x72 +1 x79 +1 x86 +1 x93 +1 x100 +1 x107 +1 x115 +1 x122 +1 x129 +1 x136 +1 x143 +1 x150 +1 x165 +1 x172 +1 x179 +1 x186 +1 x193 +1 x208 +1 x215 +1 x222 +1 x229 +1 x236 +1 x251 +1 x258 +1 x265 +1 x272 +1 x279 +1 x286 +1 x294 +1 x301 +1 x308 +1 x315 +1 x322 +1 x329 +1 x337 +1 x344 +1 x351 +1 x358 +1 x365 +1 x372 +1 x387 +1 x394 >= 1 ;
-1 x7 -1 x14 -1 x29 -1 x36 -1 x43 -1 x50 -1 x57 -1 x64 -1 x72 -1 x79 -1 x86 -1 x93 -1 x100 -1 x107 -1 x115 -1 x122 -1 x129 -1 x136 -1 x143 -1 x150 -1 x165 -1 x172 -1 x179 -1 x186 -1 x193 -1 x208 -1 x215 -1 x222 -1 x229 -1 x236 -1 x251 -1 x258 -1 x265 -1 x272 -1 x279 -1 x286 -1 x294 -1 x301 -1 x308 -1 x315 -1 x322 -1 x329 -1 x337 -1 x344 -1 x351 -1 x358 -1 x365 -1 x372 -1 x387 -1 x394 -14 x456 >= -15 ;
+1 x7 +1 x14 +1 x21 +1 x28 +1 x35 +1 x42 +1 x49 +1 x56 +1 x63 +1 x70 +1 x77 +1 x84 +1 x113 +1 x120 +1 x127 +1 x134 +1 x141 +1 x148 +1 x155 +1 x162 +1 x169 +1 x176 +1 x183 +1 x190 +1 x197 +1 x204 +1 x211 +1 x218 +1 x225 +1 x232 +1 x239 +1 x246 +1 x253 +1 x260 +1 x267 +1 x274 +1 x281 +1 x288 +1 x317 +1 x324 +1 x331 +1 x338 +1 x345 +1 x352 +1 x359 +1 x366 +1 x373 +1 x380 +1 x387 +1 x394 >= 1 ;
-1 x7 -1 x14 -1 x21 -1 x28 -1 x35 -1 x42 -1 x49 -1 x56 -1 x63 -1 x70 -1 x77 -1 x84 -1 x113 -1 x120 -1 x127 -1 x134 -1 x141 -1 x148 -1 x155 -1 x162 -1 x169 -1 x176 -1 x183 -1 x190 -1 x197 -1 x204 -1 x211 -1 x218 -1 x225 -1 x232 -1 x239 -1 x246 -1 x253 -1 x260 -1 x267 -1 x274 -1 x281 -1 x288 -1 x317 -1 x324 -1 x331 -1 x338 -1 x345 -1 x352 -1 x359 -1 x366 -1 x373 -1 x380 -1 x387 -1 x394 -14 x457 >= -15 ;
+1 x7 +1 x14 +1 x21 +1 x28 +1 x35 +1 x48 +1 x55 +1 x62 +1 x69 +1 x76 +1 x83 +1 x90 +1 x97 +1 x104 +1 x111 +1 x131 +1 x138 +1 x145 +1 x152 +1 x159 +1 x166 +1 x173 +1 x180 +1 x187 +1 x194 +1 x207 +1 x214 +1 x221 +1 x228 +1 x235 +1 x242 +1 x249 +1 x256 +1 x263 +1 x270 +1 x290 +1 x297 +1 x304 +1 x311 +1 x318 +1 x325 +1 x332 +1 x339 +1 x346 +1 x353 +1 x366 +1 x373 +1 x380 +1 x387 +1 x394 >= 1 ;
-1 x7 -1 x14 -1 x21 -1 x28 -1 x35 -1 x48 -1 x55 -1 x62 -1 x69 -1 x76 -1 x83 -1 x90 -1 x97 -1 x104 -1 x111 -1 x131 -1 x138 -1 x145 -1 x152 -1 x159 -1 x166 -1 x173 -1 x180 -1 x187 -1 x194 -1 x207 -1 x214 -1 x221 -1 x228 -1 x235 -1 x242 -1 x249 -1 x256 -1 x263 -1 x270 -1 x290 -1 x297 -1 x304 -1 x311 -1 x318 -1 x325 -1 x332 -1 x339 -1 x346 -1 x353 -1 x366 -1 x373 -1 x380 -1 x387 -1 x394 -14 x458 >= -15 ;
+1 x7 +1 x14 +1 x20 +1 x27 +1 x34 +1 x41 +1 x48 +1 x54 +1 x61 +1 x68 +1 x75 +1 x88 +1 x95 +1 x102 +1 x109 +1 x122 +1 x129 +1 x136 +1 x143 +1 x156 +1 x163 +1 x170 +1 x177 +1 x190 +1 x197 +1 x204 +1 x211 +1 x224 +1 x231 +1 x238 +1 x245 +1 x258 +1 x265 +1 x272 +1 x279 +1 x292 +1 x299 +1 x306 +1 x313 +1 x326 +1 x333 +1 x340 +1 x347 +1 x353 +1 x360 +1 x367 +1 x374 +1 x381 +1 x387 +1 x394 >= 1 ;
-1 x7 -1 x14 -1 x20 -1 x27 -1 x34 -1 x41 -1 x48 -1 x54 -1 x61 -1 x68 -1 x75 -1 x88 -1 x95 -1 x102 -1 x109 -1 x122 -1 x129 -1 x136 -1 x143 -1 x156 -1 x163 -1 x170 -1 x177 -1 x190 -1 x197 -1 x204 -1 x211 -1 x224 -1 x231 -1 x238 -1 x245 -1 x258 -1 x265 -1 x272 -1 x279 -1 x292 -1 x299 -1 x306 -1 x313 -1 x326 -1 x333 -1 x340 -1 x347 -1 x353 -1 x360 -1 x367 -1 x374 -1 x381 -1 x387 -1 x394 -14 x459 >= -15 ;
+1 x7 +1 x13 +1 x20 +1 x27 +1 x33 +1 x40 +1 x47 +1 x60 +1 x67 +1 x80 +1 x87 +1 x100 +1 x107 +1 x114 +1 x120 +1 x127 +1 x134 +1 x140 +1 x147 +1 x154 +1 x160 +1 x167 +1 x174 +1 x187 +1 x194 +1 x207 +1 x214 +1 x227 +1 x234 +1 x241 +1 x247 +1 x254 +1 x261 +1 x267 +1 x274 +1 x281 +1 x287 +1 x294 +1 x301 +1 x314 +1 x321 +1 x334 +1 x341 +1 x354 +1 x361 +1 x368 +1 x374 +1 x381 +1 x388 +1 x394 >= 1 ;
-1 x7 -1 x13 -1 x20 -1 x27 -1 x33 -1 x40 -1 x47 -1 x60 -1 x67 -1 x80 -1 x87 -1 x100 -1 x107 -1 x114 -1 x120 -1 x127 -1 x134 -1 x140 -1 x147 -1 x154 -1 x160 -1 x167 -1 x174 -1 x187 -1 x194 -1 x207 -1 x214 -1 x227 -1 x234 -1 x241 -1 x247 -1 x254 -1 x261 -1 x267 -1 x274 -1 x281 -1 x287 -1 x294 -1 x301 -1 x314 -1 x321 -1 x334 -1 x341 -1 x354 -1 x361 -1 x368 -1 x374 -1 x381 -1 x388 -1 x394 -14 x460 >= -15 ;
+1 x13 +1 x20 +1 x26 +1 x33 +1 x46 +1 x53 +1 x59 +1 x66 +1 x72 +1 x79 +1 x92 +1 x99 +1 x105 +1 x112 +1 x118 +1 x125 +1 x138 +1 x145 +1 x151 +1 x158 +1 x164 +1 x171 +1 x184 +1 x191 +1 x197 +1 x204 +1 x210 +1 x217 +1 x230 +1 x237 +1 x243 +1 x250 +1 x256 +1 x263 +1 x276 +1 x283 +1 x289 +1 x296 +1 x302 +1 x309 +1 x322 +1 x329 +1 x335 +1 x342 +1 x348 +1 x355 +1 x368 +1 x375 +1 x381 +1 x388 >= 1 ;
-1 x13 -1 x20 -1 x26 -1 x33 -1 x46 -1 x53 -1 x59 -1 x66 -1 x72 -1 x79 -1 x92 -1 x99 -1 x105 -1 x112 -1 x118 -1 x125 -1 x138 -1 x145 -1 x151 -1 x158 -1 x164 -1 x171 -1 x184 -1 x191 -1 x197 -1 x204 -1 x210 -1 x217 -1 x230 -1 x237 -1 x243 -1 x250 -1 x256 -1 x263 -1 x276 -1 x283 -1 x289 -1 x296 -1 x302 -1 x309 -1 x322 -1 x329 -1 x335 -1 x342 -1 x348 -1 x355 -1 x368 -1 x375 -1 x381 -1 x388 -14 x461 >= -15 ;
+1 x13 +1 x19 +1 x26 +1 x32 +1 x39 +1 x45 +1 x52 +1 x58 +1 x65 +1 x71 +1 x78 +1 x84 +1 x97 +1 x110 +1 x123 +1 x129 +1 x136 +1 x142 +1 x149 +1 x155 +1 x162 +1 x168 +1 x175 +1 x181 +1 x194 +1 x207 +1 x220 +1 x226 +1 x233 +1 x239 +1 x246 +1 x252 +1 x259 +1 x265 +1 x272 +1 x278 +1 x291 +1 x304 +1 x317 +1 x323 +1 x330 +1 x336 +1 x343 +1 x349 +1 x356 +1 x362 +1 x369 +1 x375 +1 x382 +1 x388 >= 1 ;
-1 x13 -1 x19 -1 x26 -1 x32 -1 x39 -1 x45 -1 x52 -1 x58 -1 x65 -1 x71 -1 x78 -1 x84 -1 x97 -1 x110 -1 x123 -1 x129 -1 x136 -1 x142 -1 x149 -1 x155 -1 x162 -1 x168 -1 x175 -1 x181 -1 x194 -1 x207 -1 x220 -1 x226 -1 x233 -1 x239 -1 x246 -1 x252 -1 x259 -1 x265 -1 x272 -1 x278 -1 x291 -1 x304 -1 x317 -1 x323 -1 x330 -1 x336 -1 x343 -1 x349 -1 x356 -1 x362 -1 x369 -1 x375 -1 x382 -1 x388 -14 x462 >= -15 ;
+1 x6 +1 x13 +1 x19 +1 x32 +1 x38 +1 x51 +1 x57 +1 x64 +1 x70 +1 x76 +1 x83 +1 x89 +1 x102 +1 x108 +1 x121 +1 x127 +1 x134 +1 x140 +1 x146 +1 x153 +1 x159 +1 x172 +1 x178 +1 x191 +1 x197 +1 x204 +1 x210 +1 x223 +1 x229 +1 x242 +1 x248 +1 x255 +1 x261 +1 x267 +1 x274 +1 x280 +1 x293 +1 x299 +1 x312 +1 x318 +1 x325 +1 x331 +1 x337 +1 x344 +1 x350 +1 x363 +1 x369 +1 x382 +1 x388 +1 x395 >= 1 ;
-1 x6 -1 x13 -1 x19 -1 x32 -1 x38 -1 x51 -1 x57 -1 x64 -1 x70 -1 x76 -1 x83 -1 x89 -1 x102 -1 x108 -1 x121 -1 x127 -1 x134 -1 x140 -1 x146 -1 x153 -1 x159 -1 x172 -1 x178 -1 x191 -1 x197 -1 x204 -1 x210 -1 x223 -1 x229 -1 x242 -1 x248 -1 x255 -1 x261 -1 x267 -1 x274 -1 x280 -1 x293 -1 x299 -1 x312 -1 x318 -1 x325 -1 x331 -1 x337 -1 x344 -1 x350 -1 x363 -1 x369 -1 x382 -1 x388 -1 x395 -14 x463 >= -15 ;
+1 x6 +1 x19 +1 x25 +1 x31 +1 x44 +1 x50 +1 x56 +1 x63 +1 x69 +1 x75 +1 x88 +1 x94 +1 x100 +1 x113 +1 x119 +1 x125 +1 x138 +1 x144 +1 x150 +1 x157 +1 x163 +1 x169 +1 x182 +1 x188 +1 x194 +1 x207 +1 x213 +1 x219 +1 x232 +1 x238 +1 x244 +1 x251 +1 x257 +1 x263 +1 x276 +1 x282 +1 x288 +1 x301 +1 x307 +1 x313 +1 x326 +1 x332 +1 x338 +1 x345 +1 x351 +1 x357 +1 x370 +1 x376 +1 x382 +1 x395 >= 1 ;
-1 x6 -1 x19 -1 x25 -1 x31 -1 x44 -1 x50 -1 x56 -1 x63 -1 x69 -1 x75 -1 x88 -1 x94 -1 x100 -1 x113 -1 x119 -1 x125 -1 x138 -1 x144 -1 x150 -1 x157 -1 x163 -1 x169 -1 x182 -1 x188 -1 x194 -1 x207 -1 x213 -1 x219 -1 x232 -1 x238 -1 x244 -1 x251 -1 x257 -1 x263 -1 x276 -1 x282 -1 x288 -1 x301 -1 x307 -1 x313 -1 x326 -1 x332 -1 x338 -1 x345 -1 x351 -1 x357 -1 x370 -1 x376 -1 x382 -1 x395 -14 x464 >= -15 ;
+1 x6 +1 x12 +1 x25 +1 x31 +1 x37 +1 x43 +1 x49 +1 x62 +1 x68 +1 x74 +1 x80 +1 x86 +1 x99 +1 x105 +1 x111 +1 x117 +1 x123 +1 x136 +1 x142 +1 x148 +1 x154 +1 x173 +1 x179 +1 x185 +1 x191 +1 x210 +1 x216 +1 x222 +1 x228 +1 x247 +1 x253 +1 x259 +1 x265 +1 x278 +1 x284 +1 x290 +1 x296 +1 x302 +1 x315 +1 x321 +1 x327 +1 x333 +1 x339 +1 x352 +1 x358 +1 x364 +1 x370 +1 x376 +1 x389 +1 x395 >= 1 ;
-1 x6 -1 x12 -1 x25 -1 x31 -1 x37 -1 x43 -1 x49 -1 x62 -1 x68 -1 x74 -1 x80 -1 x86 -1 x99 -1 x105 -1 x111 -1 x117 -1 x123 -1 x136 -1 x142 -1 x148 -1 x154 -1 x173 -1 x179 -1 x185 -1 x191 -1 x210 -1 x216 -1 x222 -1 x228 -1 x247 -1 x253 -1 x259 -1 x265 -1 x278 -1 x284 -1 x290 -1 x296 -1 x302 -1 x315 -1 x321 -1 x327 -1 x333 -1 x339 -1 x352 -1 x358 -1 x364 -1 x370 -1 x376 -1 x389 -1 x395 -14 x465 >= -15 ;
+1 x6 +1 x12 +1 x18 +1 x24 +1 x30 +1 x55 +1 x61 +1 x67 +1 x73 +1 x79 +1 x85 +1 x91 +1 x97 +1 x103 +1 x109 +1 x134 +1 x140 +1 x146 +1 x152 +1 x158 +1 x164 +1 x170 +1 x176 +1 x182 +1 x188 +1 x213 +1 x219 +1 x225 +1 x231 +1 x237 +1 x243 +1 x249 +1 x255 +1 x261 +1 x267 +1 x292 +1 x298 +1 x304 +1 x310 +1 x316 +1 x322 +1 x328 +1 x334 +1 x340 +1 x346 +1 x371 +1 x377 +1 x383 +1 x389 +1 x395 >= 1 ;
-1 x6 -1 x12 -1 x18 -1 x24 -1 x30 -1 x55 -1 x61 -1 x67 -1 x73 -1 x79 -1 x85 -1 x91 -1 x97 -1 x103 -1 x109 -1 x134 -1 x140 -1 x146 -1 x152 -1 x158 -1 x164 -1 x170 -1 x176 -1 x182 -1 x188 -1 x213 -1 x219 -1 x225 -1 x231 -1 x237 -1 x243 -1 x249 -1 x255 -1 x261 -1 x267 -1 x292 -1 x298 -1 x304 -1 x310 -1 x316 -1 x322 -1 x328 -1 x334 -1 x340 -1 x346 -1 x371 -1 x377 -1 x383 -1 x389 -1 x395 -14 x466 >= -15 ;
+1 x6 +1 x12 +1 x18 +1 x24 +1 x30 +1 x36 +1 x42 +1 x48 +1 x54 +1 x60 +1 x66 +1 x72 +1 x78 +1 x84 +1 x90 +1 x96 +1 x102 +1 x108 +1 x114 +1 x120 +1 x126 +1 x132 +1 x138 +1 x144 +1 x150 +1 x251 +1 x257 +1 x263 +1 x269 +1 x275 +1 x281 +1 x287 +1 x293 +1 x299 +1 x305 +1 x311 +1 x317 +1 x323 +1 x329 +1 x335 +1 x341 +1 x347 +1 x353 +1 x359 +1 x365 +1 x371 +1 x377 +1 x383 +1 x389 +1 x395 >= 1 ;
-1 x6 -1 x12 -1 x18 -1 x24 -1 x30 -1 x36 -1 x42 -1 x48 -1 x54 -1 x60 -1 x66 -1 x72 -1 x78 -1 x84 -1 x90 -1 x96 -1 x102 -1 x108 -1 x114 -1 x120 -1 x126 -1 x132 -1 x138 -1 x144 -1 x150 -1 x251 -1 x257 -1 x263 -1 x269 -1 x275 -1 x281 -1 x287 -1 x293 -1 x299 -1 x305 -1 x311 -1 x317 -1 x323 -1 x329 -1 x335 -1 x341 -1 x347 -1 x353 -1 x359 -1 x365 -1 x371 -1 x377 -1 x383 -1 x389 -1 x395 -14 x467 >= -15 ;
+1 x6 +1 x12 +1 x18 +1 x41 +1 x47 +1 x53 +1 x59 +1 x65 +1 x71 +1 x77 +1 x94 +1 x100 +1 x106 +1 x112 +1 x118 +1 x124 +1 x130 +1 x136 +1 x153 +1 x159 +1 x165 +1 x171 +1 x177 +1 x183 +1 x189 +1 x212 +1 x218 +1 x224 +1 x230 +1 x236 +1 x242 +1 x248 +1 x265 +1 x271 +1 x277 +1 x283 +1 x289 +1 x295 +1 x301 +1 x307 +1 x324 +1 x330 +1 x336 +1 x342 +1 x348 +1 x354 +1 x360 +1 x383 +1 x389 +1 x395 >= 1 ;
-1 x6 -1 x12 -1 x18 -1 x41 -1 x47 -1 x53 -1 x59 -1 x65 -1 x71 -1 x77 -1 x94 -1 x100 -1 x106 -1 x112 -1 x118 -1 x124 -1 x130 -1 x136 -1 x153 -1 x159 -1 x165 -1 x171 -1 x177 -1 x183 -1 x189 -1 x212 -1 x218 -1 x224 -1 x230 -1 x236 -1 x242 -1 x248 -1 x265 -1 x271 -1 x277 -1 x283 -1 x289 -1 x295 -1 x301 -1 x307 -1 x324 -1 x330 -1 x336 -1 x342 -1 x348 -1 x354 -1 x360 -1 x383 -1 x389 -1 x395 -14 x468 >= -15 ;
+1 x6 +1 x23 +1 x29 +1 x35 +1 x41 +1 x52 +1 x58 +1 x64 +1 x70 +1 x81 +1 x87 +1 x93 +1 x99 +1 x116 +1 x122 +1 x128 +1 x134 +1 x145 +1 x151 +1 x157 +1 x163 +1 x174 +1 x180 +1 x186 +1 x192 +1 x209 +1 x215 +1 x221 +1 x227 +1 x238 +1 x244 +1 x250 +1 x256 +1 x267 +1 x273 +1 x279 +1 x285 +1 x302 +1 x308 +1 x314 +1 x320 +1 x331 +1 x337 +1 x343 +1 x349 +1 x360 +1 x366 +1 x372 +1 x378 +1 x395 >= 1 ;
-1 x6 -1 x23 -1 x29 -1 x35 -1 x41 -1 x52 -1 x58 -1 x64 -1 x70 -1 x81 -1 x87 -1 x93 -1 x99 -1 x116 -1 x122 -1 x128 -1 x134 -1 x145 -1 x151 -1 x157 -1 x163 -1 x174 -1 x180 -1 x186 -1 x192 -1 x209 -1 x215 -1 x221 -1 x227 -1 x238 -1 x244 -1 x250 -1 x256 -1 x267 -1 x273 -1 x279 -1 x285 -1 x302 -1 x308 -1 x314 -1 x320 -1 x331 -1 x337 -1 x343 -1 x349 -1 x360 -1 x366 -1 x372 -1 x378 -1 x395 -14 x469 >= -15 ;
+1 x6 +1 x17 +1 x23 +1 x29 +1 x40 +1 x46 +1 x57 +1 x63 +1 x69 +1 x80 +1 x86 +1 x92 +1 x103 +1 x109 +1 x120 +1 x126 +1 x132 +1 x143 +1 x149 +1 x155 +1 x166 +1 x172 +1 x183 +1 x189 +1 x195 +1 x206 +1 x212 +1 x218 +1 x229 +1 x235 +1 x246 +1 x252 +1 x258 +1 x269 +1 x275 +1 x281 +1 x292 +1 x298 +1 x309 +1 x315 +1 x321 +1 x332 +1 x338 +1 x344 +1 x355 +1 x361 +1 x372 +1 x378 +1 x384 +1 x395 >= 1 ;
-1 x6 -1 x17 -1 x23 -1 x29 -1 x40 -1 x46 -1 x57 -1 x63 -1 x69 -1 x80 -1 x86 -1 x92 -1 x103 -1 x109 -1 x120 -1 x126 -1 x132 -1 x143 -1 x149 -1 x155 -1 x166 -1 x172 -1 x183 -1 x189 -1 x195 -1 x206 -1 x212 -1 x218 -1 x229 -1 x235 -1 x246 -1 x252 -1 x258 -1 x269 -1 x275 -1 x281 -1 x292 -1 x298 -1 x309 -1 x315 -1 x321 -1 x332 -1 x338 -1 x344 -1 x355 -1 x361 -1 x372 -1 x378 -1 x384 -1 x395 -14 x470 >= -15 ;
+1 x6 +1 x11 +1 x17 +1 x28 +1 x34 +1 x45 +1 x51 +1 x62 +1 x68 +1 x79 +1 x85 +1 x96 +1 x102 +1 x107 +1 x113 +1 x124 +1 x130 +1 x141 +1 x147 +1 x158 +1 x164 +1 x175 +1 x181 +1 x192 +1 x198 +1 x203 +1 x209 +1 x220 +1 x226 +1 x237 +1 x243 +1 x254 +1 x260 +1 x271 +1 x277 +1 x288 +1 x294 +1 x299 +1 x305 +1 x316 +1 x322 +1 x333 +1 x339 +1 x350 +1 x356 +1 x367 +1 x373 +1 x384 +1 x390 +1 x395 >= 1 ;
-1 x6 -1 x11 -1 x17 -1 x28 -1 x34 -1 x45 -1 x51 -1 x62 -1 x68 -1 x79 -1 x85 -1 x96 -1 x102 -1 x107 -1 x113 -1 x124 -1 x130 -1 x141 -1 x147 -1 x158 -1 x164 -1 x175 -1 x181 -1 x192 -1 x198 -1 x203 -1 x209 -1 x220 -1 x226 -1 x237 -1 x243 -1 x254 -1 x260 -1 x271 -1 x277 -1 x288 -1 x294 -1 x299 -1 x305 -1 x316 -1 x322 -1 x333 -1 x339 -1 x350 -1 x356 -1 x367 -1 x373 -1 x384 -1 x390 -1 x395 -14 x471 >= -15 ;
+1 x11 +1 x17 +1 x22 +1 x28 +1 x39 +1 x50 +1 x56 +1 x61 +1 x67 +1 x78 +1 x89 +1 x95 +1 x100 +1 x106 +1 x117 +1 x128 +1 x134 +1 x139 +1 x145 +1 x156 +1 x167 +1 x173 +1 x178 +1 x184 +1 x195 +1 x206 +1 x217 +1 x223 +1 x228 +1 x234 +1 x245 +1 x256 +1 x262 +1 x267 +1 x273 +1 x284 +1 x295 +1 x301 +1 x306 +1 x312 +1 x323 +1 x334 +1 x340 +1 x345 +1 x351 +1 x362 +1 x373 +1 x379 +1 x384 +1 x390 >= 1 ;
-1 x11 -1 x17 -1 x22 -1 x28 -1 x39 -1 x50 -1 x56 -1 x61 -1 x67 -1 x78 -1 x89 -1 x95 -1 x100 -1 x106 -1 x117 -1 x128 -1 x134 -1 x139 -1 x145 -1 x156 -1 x167 -1 x173 -1 x178 -1 x184 -1 x195 -1 x206 -1 x217 -1 x223 -1 x228 -1 x234 -1 x245 -1 x256 -1 x262 -1 x267 -1 x273 -1 x284 -1 x295 -1 x301 -1 x306 -1 x312 -1 x323 -1 x334 -1 x340 -1 x345 -1 x351 -1 x362 -1 x373 -1 x379 -1 x384 -1 x390 -14 x472 >= -15 ;
+1 x11 +1 x22 +1 x33 +1 x44 +1 x55 +1 x66 +1 x77 +1 x88 +1 x99 +1 x110 +1 x121 +1 x126 +1 x132 +1 x137 +1 x143 +1 x148 +1 x154 +1 x159 +1 x165 +1 x170 +1 x176 +1 x181 +1 x187 +1 x192 +1 x198 +1 x203 +1 x209 +1 x214 +1 x220 +1 x225 +1 x231 +1 x236 +1 x242 +1 x247 +1 x253 +1 x258 +1 x264 +1 x269 +1 x275 +1 x280 +1 x291 +1 x302 +1 x313 +1 x324 +1 x335 +1 x346 +1 x357 +1 x368 +1 x379 +1 x390 >= 1 ;
-1 x11 -1 x22 -1 x33 -1 x44 -1 x55 -1 x66 -1 x77 -1 x88 -1 x99 -1 x110 -1 x121 -1 x126 -1 x132 -1 x137 -1 x143 -1 x148 -1 x154 -1 x159 -1 x165 -1 x170 -1 x176 -1 x181 -1 x187 -1 x192 -1 x198 -1 x203 -1 x209 -1 x214 -1 x220 -1 x225 -1 x231 -1 x236 -1 x242 -1 x247 -1 x253 -1 x258 -1 x264 -1 x269 -1 x275 -1 x280 -1 x291 -1 x302 -1 x313 -1 x324 -1 x335 -1 x346 -1 x357 -1 x368 -1 x379 -1 x390 -14 x473 >= -15 ;
+1 x11 +1 x16 +1 x22 +1 x27 +1 x38 +1 x49 +1 x54 +1 x65 +1 x76 +1 x81 +1 x87 +1 x92 +1 x103 +1 x114 +1 x119 +1 x130 +1 x141 +1 x146 +1 x152 +1 x157 +1 x168 +1 x179 +1 x184 +1 x190 +1 x195 +1 x206 +1 x211 +1 x217 +1 x222 +1 x233 +1 x244 +1 x249 +1 x255 +1 x260 +1 x271 +1 x282 +1 x287 +1 x298 +1 x309 +1 x314 +1 x320 +1 x325 +1 x336 +1 x347 +1 x352 +1 x363 +1 x374 +1 x379 +1 x385 +1 x390 >= 1 ;
-1 x11 -1 x16 -1 x22 -1 x27 -1 x38 -1 x49 -1 x54 -1 x65 -1 x76 -1 x81 -1 x87 -1 x92 -1 x103 -1 x114 -1 x119 -1 x130 -1 x141 -1 x146 -1 x152 -1 x157 -1 x168 -1 x179 -1 x184 -1 x190 -1 x195 -1 x206 -1 x211 -1 x217 -1 x222 -1 x233 -1 x244 -1 x249 -1 x255 -1 x260 -1 x271 -1 x282 -1 x287 -1 x298 -1 x309 -1 x314 -1 x320 -1 x325 -1 x336 -1 x347 -1 x352 -1 x363 -1 x374 -1 x379 -1 x385 -1 x390 -14 x474 >= -15 ;
+1 x11 +1 x16 +1 x27 +1 x32 +1 x43 +1 x48 +1 x59 +1 x64 +1 x75 +1 x80 +1 x91 +1 x96 +1 x107 +1 x112 +1 x123 +1 x128 +1 x134 +1 x139 +1 x150 +1 x155 +1 x166 +1 x171 +1 x182 +1 x187 +1 x198 +1 x203 +1 x214 +1 x219 +1 x230 +1 x235 +1 x246 +1 x251 +1 x262 +1 x267 +1 x273 +1 x278 +1 x289 +1 x294 +1 x305 +1 x310 +1 x321 +1 x326 +1 x337 +1 x342 +1 x353 +1 x358 +1 x369 +1 x374 +1 x385 +1 x390 >= 1 ;
-1 x11 -1 x16 -1 x27 -1 x32 -1 x43 -1 x48 -1 x59 -1 x64 -1 x75 -1 x80 -1 x91 -1 x96 -1 x107 -1 x112 -1 x123 -1 x128 -1 x134 -1 x139 -1 x150 -1 x155 -1 x166 -1 x171 -1 x182 -1 x187 -1 x198 -1 x203 -1 x214 -1 x219 -1 x230 -1 x235 -1 x246 -1 x251 -1 x262 -1 x267 -1 x273 -1 x278 -1 x289 -1 x294 -1 x305 -1 x310 -1 x321 -1 x326 -1 x337 -1 x342 -1 x353 -1 x358 -1 x369 -1 x374 -1 x385 -1 x390 -14 x475 >= -15 ;
+1 x5 +1 x16 +1 x21 +1 x37 +1 x42 +1 x53 +1 x58 +1 x63 +1 x74 +1 x79 +1 x90 +1 x95 +1 x100 +1 x111 +1 x116 +1 x132 +1 x137 +1 x148 +1 x153 +1 x158 +1 x169 +1 x174 +1 x185 +1 x190 +1 x195 +1 x206 +1 x211 +1 x216 +1 x227 +1 x232 +1 x243 +1 x248 +1 x253 +1 x264 +1 x269 +1 x285 +1 x290 +1 x301 +1 x306 +1 x311 +1 x322 +1 x327 +1 x338 +1 x343 +1 x348 +1 x359 +1 x364 +1 x380 +1 x385 +1 x396 >= 1 ;
-1 x5 -1 x16 -1 x21 -1 x37 -1 x42 -1 x53 -1 x58 -1 x63 -1 x74 -1 x79 -1 x90 -1 x95 -1 x100 -1 x111 -1 x116 -1 x132 -1 x137 -1 x148 -1 x153 -1 x158 -1 x169 -1 x174 -1 x185 -1 x190 -1 x195 -1 x206 -1 x211 -1 x216 -1 x227 -1 x232 -1 x243 -1 x248 -1 x253 -1 x264 -1 x269 -1 x285 -1 x290 -1 x301 -1 x306 -1 x311 -1 x322 -1 x327 -1 x338 -1 x343 -1 x348 -1 x359 -1 x364 -1 x380 -1 x385 -1 x396 -14 x476 >= -15 ;
+1 x5 +1 x21 +1 x26 +1 x31 +1 x47 +1 x52 +1 x57 +1 x68 +1 x73 +1 x78 +1 x83 +1 x94 +1 x99 +1 x104 +1 x120 +1 x125 +1 x130 +1 x146 +1 x151 +1 x156 +1 x172 +1 x177 +1 x182 +1 x193 +1 x198 +1 x203 +1 x208 +1 x219 +1 x224 +1 x229 +1 x245 +1 x250 +1 x255 +1 x271 +1 x276 +1 x281 +1 x297 +1 x302 +1 x307 +1 x318 +1 x323 +1 x328 +1 x333 +1 x344 +1 x349 +1 x354 +1 x370 +1 x375 +1 x380 +1 x396 >= 1 ;
-1 x5 -1 x21 -1 x26 -1 x31 -1 x47 -1 x52 -1 x57 -1 x68 -1 x73 -1 x78 -1 x83 -1 x94 -1 x99 -1 x104 -1 x120 -1 x125 -1 x130 -1 x146 -1 x151 -1 x156 -1 x172 -1 x177 -1 x182 -1 x193 -1 x198 -1 x203 -1 x208 -1 x219 -1 x224 -1 x229 -1 x245 -1 x250 -1 x255 -1 x271 -1 x276 -1 x281 -1 x297 -1 x302 -1 x307 -1 x318 -1 x323 -1 x328 -1 x333 -1 x344 -1 x349 -1 x354 -1 x370 -1 x375 -1 x380 -1 x396 -14 x477 >= -15 ;
+1 x5 +1 x10 +1 x26 +1 x31 +1 x36 +1 x41 +1 x46 +1 x62 +1 x67 +1 x72 +1 x77 +1 x82 +1 x98 +1 x103 +1 x108 +1 x113 +1 x118 +1 x139 +1 x144 +1 x149 +1 x154 +1 x175 +1 x180 +1 x185 +1 x190 +1 x211 +1 x216 +1 x221 +1 x226 +1 x247 +1 x252 +1 x257 +1 x262 +1 x283 +1 x288 +1 x293 +1 x298 +1 x303 +1 x319 +1 x324 +1 x329 +1 x334 +1 x339 +1 x355 +1 x360 +1 x365 +1 x370 +1 x375 +1 x391 +1 x396 >= 1 ;
-1 x5 -1 x10 -1 x26 -1 x31 -1 x36 -1 x41 -1 x46 -1 x62 -1 x67 -1 x72 -1 x77 -1 x82 -1 x98 -1 x103 -1 x108 -1 x113 -1 x118 -1 x139 -1 x144 -1 x149 -1 x154 -1 x175 -1 x180 -1 x185 -1 x190 -1 x211 -1 x216 -1 x221 -1 x226 -1 x247 -1 x252 -1 x257 -1 x262 -1 x283 -1 x288 -1 x293 -1 x298 -1 x303 -1 x319 -1 x324 -1 x329 -1 x334 -1 x339 -1 x355 -1 x360 -1 x365 -1 x370 -1 x375 -1 x391 -1 x396 -14 x478 >= -15 ;
+1 x5 +1 x10 +1 x15 +1 x20 +1 x46 +1 x51 +1 x56 +1 x61 +1 x66 +1 x71 +1 x76 +1 x81 +1 x86 +1 x117 +1 x122 +1 x127 +1 x132 +1 x137 +1 x142 +1 x147 +1 x152 +1 x183 +1 x188 +1 x193 +1 x198 +1 x203 +1 x208 +1 x213 +1 x218 +1 x249 +1 x254 +1 x259 +1 x264 +1 x269 +1 x274 +1 x279 +1 x284 +1 x315 +1 x320 +1 x325 +1 x330 +1 x335 +1 x340 +1 x345 +1 x350 +1 x355 +1 x381 +1 x386 +1 x391 +1 x396 >= 1 ;
-1 x5 -1 x10 -1 x15 -1 x20 -1 x46 -1 x51 -1 x56 -1 x61 -1 x66 -1 x71 -1 x76 -1 x81 -1 x86 -1 x117 -1 x122 -1 x127 -1 x132 -1 x137 -1 x142 -1 x147 -1 x152 -1 x183 -1 x188 -1 x193 -1 x198 -1 x203 -1 x208 -1 x213 -1 x218 -1 x249 -1 x254 -1 x259 -1 x264 -1 x269 -1 x274 -1 x279 -1 x284 -1 x315 -1 x320 -1 x325 -1 x330 -1 x335 -1 x340 -1 x345 -1 x350 -1 x355 -1 x381 -1 x386 -1 x391 -1 x396 -14 x479 >= -15 ;
+1 x5 +1 x10 +1 x15 +1 x20 +1 x25 +1 x30 +1 x35 +1 x40 +1 x45 +1 x50 +1 x55 +1 x60 +1 x65 +1 x70 +1 x75 +1 x80 +1 x85 +1 x90 +1 x95 +1 x100 +1 x105 +1 x110 +1 x115 +1 x120 +1 x125 +1 x276 +1 x281 +1 x286 +1 x291 +1 x296 +1 x301 +1 x306 +1 x311 +1 x316 +1 x321 +1 x326 +1 x331 +1 x336 +1 x341 +1 x346 +1 x351 +1 x356 +1 x361 +1 x366 +1 x371 +1 x376 +1 x381 +1 x386 +1 x391 +1 x396 >= 1 ;
-1 x5 -1 x10 -1 x15 -1 x20 -1 x25 -1 x30 -1 x35 -1 x40 -1 x45 -1 x50 -1 x55 -1 x60 -1 x65 -1 x70 -1 x75 -1 x80 -1 x85 -1 x90 -1 x95 -1 x100 -1 x105 -1 x110 -1 x115 -1 x120 -1 x125 -1 x276 -1 x281 -1 x286 -1 x291 -1 x296 -1 x301 -1 x306 -1 x311 -1 x316 -1 x321 -1 x326 -1 x331 -1 x336 -1 x341 -1 x346 -1 x351 -1 x356 -1 x361 -1 x366 -1 x371 -1 x376 -1 x381 -1 x386 -1 x391 -1 x396 -14 x480 >= -15 ;
+1 x5 +1 x10 +1 x15 +1 x20 +1 x25 +1 x30 +1 x69 +1 x74 +1 x79 +1 x84 +1 x89 +1 x94 +1 x99 +1 x104 +1 x109 +1 x114 +1 x119 +1 x124 +1 x129 +1 x173 +1 x178 +1 x183 +1 x188 +1 x193 +1 x198 +1 x203 +1 x208 +1 x213 +1 x218 +1 x223 +1 x228 +1 x272 +1 x277 +1 x282 +1 x287 +1 x292 +1 x297 +1 x302 +1 x307 +1 x312 +1 x317 +1 x322 +1 x327 +1 x332 +1 x371 +1 x376 +1 x381 +1 x386 +1 x391 +1 x396 >= 1 ;
-1 x5 -1 x10 -1 x15 -1 x20 -1 x25 -1 x30 -1 x69 -1 x74 -1 x79 -1 x84 -1 x89 -1 x94 -1 x99 -1 x104 -1 x109 -1 x114 -1 x119 -1 x124 -1 x129 -1 x173 -1 x178 -1 x183 -1 x188 -1 x193 -1 x198 -1 x203 -1 x208 -1 x213 -1 x218 -1 x223 -1 x228 -1 x272 -1 x277 -1 x282 -1 x287 -1 x292 -1 x297 -1 x302 -1 x307 -1 x312 -1 x317 -1 x322 -1 x327 -1 x332 -1 x371 -1 x376 -1 x381 -1 x386 -1 x391 -1 x396 -14 x481 >= -15 ;
+1 x5 +1 x10 +1 x34 +1 x39 +1 x44 +1 x49 +1 x54 +1 x78 +1 x83 +1 x88 +1 x93 +1 x98 +1 x103 +1 x122 +1 x127 +1 x132 +1 x137 +1 x142 +1 x147 +1 x166 +1 x171 +1 x176 +1 x181 +1 x186 +1 x191 +1 x210 +1 x215 +1 x220 +1 x225 +1 x230 +1 x235 +1 x254 +1 x259 +1 x264 +1 x269 +1 x274 +1 x279 +1 x298 +1 x303 +1 x308 +1 x313 +1 x318 +1 x323 +1 x347 +1 x352 +1 x357 +1 x362 +1 x367 +1 x391 +1 x396 >= 1 ;
-1 x5 -1 x10 -1 x34 -1 x39 -1 x44 -1 x49 -1 x54 -1 x78 -1 x83 -1 x88 -1 x93 -1 x98 -1 x103 -1 x122 -1 x127 -1 x132 -1 x137 -1 x142 -1 x147 -1 x166 -1 x171 -1 x176 -1 x181 -1 x186 -1 x191 -1 x210 -1 x215 -1 x220 -1 x225 -1 x230 -1 x235 -1 x254 -1 x259 -1 x264 -1 x269 -1 x274 -1 x279 -1 x298 -1 x303 -1 x308 -1 x313 -1 x318 -1 x323 -1 x347 -1 x352 -1 x357 -1 x362 -1 x367 -1 x391 -1 x396 -14 x482 >= -15 ;
+1 x5 +1 x24 +1 x29 +1 x34 +1 x53 +1 x58 +1 x63 +1 x77 +1 x82 +1 x87 +1 x92 +1 x106 +1 x111 +1 x116 +1 x121 +1 x135 +1 x140 +1 x145 +1 x150 +1 x164 +1 x169 +1 x174 +1 x179 +1 x193 +1 x198 +1 x203 +1 x208 +1 x222 +1 x227 +1 x232 +1 x237 +1 x251 +1 x256 +1 x261 +1 x266 +1 x280 +1 x285 +1 x290 +1 x295 +1 x309 +1 x314 +1 x319 +1 x324 +1 x338 +1 x343 +1 x348 +1 x367 +1 x372 +1 x377 +1 x396 >= 1 ;
-1 x5 -1 x24 -1 x29 -1 x34 -1 x53 -1 x58 -1 x63 -1 x77 -1 x82 -1 x87 -1 x92 -1 x106 -1 x111 -1 x116 -1 x121 -1 x135 -1 x140 -1 x145 -1 x150 -1 x164 -1 x169 -1 x174 -1 x179 -1 x193 -1 x198 -1 x203 -1 x208 -1 x222 -1 x227 -1 x232 -1 x237 -1 x251 -1 x256 -1 x261 -1 x266 -1 x280 -1 x285 -1 x290 -1 x295 -1 x309 -1 x314 -1 x319 -1 x324 -1 x338 -1 x343 -1 x348 -1 x367 -1 x372 -1 x377 -1 x396 -14 x483 >= -15 ;
+1 x5 +1 x19 +1 x24 +1 x38 +1 x43 +1 x48 +1 x57 +1 x62 +1 x67 +1 x81 +1 x86 +1 x91 +1 x100 +1 x105 +1 x110 +1 x124 +1 x129 +1 x143 +1 x148 +1 x153 +1 x167 +1 x172 +1 x186 +1 x191 +1 x196 +1 x205 +1 x210 +1 x215 +1 x229 +1 x234 +1 x248 +1 x253 +1 x258 +1 x272 +1 x277 +1 x291 +1 x296 +1 x301 +1 x310 +1 x315 +1 x320 +1 x334 +1 x339 +1 x344 +1 x353 +1 x358 +1 x363 +1 x377 +1 x382 +1 x396 >= 1 ;
-1 x5 -1 x19 -1 x24 -1 x38 -1 x43 -1 x48 -1 x57 -1 x62 -1 x67 -1 x81 -1 x86 -1 x91 -1 x100 -1 x105 -1 x110 -1 x124 -1 x129 -1 x143 -1 x148 -1 x153 -1 x167 -1 x172 -1 x186 -1 x191 -1 x196 -1 x205 -1 x210 -1 x215 -1 x229 -1 x234 -1 x248 -1 x253 -1 x258 -1 x272 -1 x277 -1 x291 -1 x296 -1 x301 -1 x310 -1 x315 -1 x320 -1 x334 -1 x339 -1 x344 -1 x353 -1 x358 -1 x363 -1 x377 -1 x382 -1 x396 -14 x484 >= -15 ;
+1 x5 +1 x14 +1 x19 +1 x33 +1 x38 +1 x47 +1 x52 +1 x66 +1 x71 +1 x80 +1 x85 +1 x99 +1 x104 +1 x113 +1 x118 +1 x132 +1 x137 +1 x146 +1 x151 +1 x165 +1 x170 +1 x179 +1 x184 +1 x189 +1 x198 +1 x203 +1 x212 +1 x217 +1 x222 +1 x231 +1 x236 +1 x250 +1 x255 +1 x264 +1 x269 +1 x283 +1 x288 +1 x297 +1 x302 +1 x316 +1 x321 +1 x330 +1 x335 +1 x349 +1 x354 +1 x363 +1 x368 +1 x382 +1 x387 +1 x396 >= 1 ;
-1 x5 -1 x14 -1 x19 -1 x33 -1 x38 -1 x47 -1 x52 -1 x66 -1 x71 -1 x80 -1 x85 -1 x99 -1 x104 -1 x113 -1 x118 -1 x132 -1 x137 -1 x146 -1 x151 -1 x165 -1 x170 -1 x179 -1 x184 -1 x189 -1 x198 -1 x203 -1 x212 -1 x217 -1 x222 -1 x231 -1 x236 -1 x250 -1 x255 -1 x264 -1 x269 -1 x283 -1 x288 -1 x297 -1 x302 -1 x316 -1 x321 -1 x330 -1 x335 -1 x349 -1 x354 -1 x363 -1 x368 -1 x382 -1 x387 -1 x396 -14 x485 >= -15 ;
+1 x14 +1 x28 +1 x42 +1 x51 +1 x56 +1 x65 +1 x70 +1 x79 +1 x84 +1 x93 +1 x98 +1 x107 +1 x112 +1 x121 +1 x126 +1 x135 +1 x140 +1 x149 +1 x154 +1 x163 +1 x168 +1 x177 +1 x182 +1 x191 +1 x196 +1 x205 +1 x210 +1 x219 +1 x224 +1 x233 +1 x238 +1 x247 +1 x252 +1 x261 +1 x266 +1 x275 +1 x280 +1 x289 +1 x294 +1 x303 +1 x308 +1 x317 +1 x322 +1 x331 +1 x336 +1 x345 +1 x350 +1 x359 +1 x373 +1 x387 >= 1 ;
-1 x14 -1 x28 -1 x42 -1 x51 -1 x56 -1 x65 -1 x70 -1 x79 -1 x84 -1 x93 -1 x98 -1 x107 -1 x112 -1 x121 -1 x126 -1 x135 -1 x140 -1 x149 -1 x154 -1 x163 -1 x168 -1 x177 -1 x182 -1 x191 -1 x196 -1 x205 -1 x210 -1 x219 -1 x224 -1 x233 -1 x238 -1 x247 -1 x252 -1 x261 -1 x266 -1 x275 -1 x280 -1 x289 -1 x294 -1 x303 -1 x308 -1 x317 -1 x322 -1 x331 -1 x336 -1 x345 -1 x350 -1 x359 -1 x373 -1 x387 -14 x486 >= -15 ;
+1 x9 +1 x14 +1 x23 +1 x32 +1 x37 +1 x46 +1 x60 +1 x69 +1 x74 +1 x83 +1 x92 +1 x97 +1 x106 +1 x115 +1 x120 +1 x129 +1 x138 +1 x143 +1 x152 +1 x157 +1 x166 +1 x175 +1 x180 +1 x189 +1 x198 +1 x203 +1 x212 +1 x221 +1 x226 +1 x235 +1 x244 +1 x249 +1 x258 +1 x263 +1 x272 +1 x281 +1 x286 +1 x295 +1 x304 +1 x309 +1 x318 +1 x327 +1 x332 +1 x341 +1 x355 +1 x364 +1 x369 +1 x378 +1 x387 +1 x392 >= 1 ;
-1 x9 -1 x14 -1 x23 -1 x32 -1 x37 -1 x46 -1 x60 -1 x69 -1 x74 -1 x83 -1 x92 -1 x97 -1 x106 -1 x115 -1 x120 -1 x129 -1 x138 -1 x143 -1 x152 -1 x157 -1 x166 -1 x175 -1 x180 -1 x189 -1 x198 -1 x203 -1 x212 -1 x221 -1 x226 -1 x235 -1 x244 -1 x249 -1 x258 -1 x263 -1 x272 -1 x281 -1 x286 -1 x295 -1 x304 -1 x309 -1 x318 -1 x327 -1 x332 -1 x341 -1 x355 -1 x364 -1 x369 -1 x378 -1 x387 -1 x392 -14 x487 >= -15 ;
+1 x9 +1 x18 +1 x23 +1 x32 +1 x41 +1 x50 +1 x59 +1 x64 +1 x73 +1 x82 +1 x91 +1 x100 +1 x105 +1 x114 +1 x123 +1 x132 +1 x141 +1 x146 +1 x155 +1 x164 +1 x173 +1 x178 +1 x182 +1 x187 +1 x196 +1 x205 +1 x214 +1 x219 +1 x223 +1 x228 +1 x237 +1 x246 +1 x255 +1 x260 +1 x269 +1 x278 +1 x287 +1 x296 +1 x301 +1 x310 +1 x319 +1 x328 +1 x337 +1 x342 +1 x351 +1 x360 +1 x369 +1 x378 +1 x383 +1 x392 >= 1 ;
-1 x9 -1 x18 -1 x23 -1 x32 -1 x41 -1 x50 -1 x59 -1 x64 -1 x73 -1 x82 -1 x91 -1 x100 -1 x105 -1 x114 -1 x123 -1 x132 -1 x141 -1 x146 -1 x155 -1 x164 -1 x173 -1 x178 -1 x182 -1 x187 -1 x196 -1 x205 -1 x214 -1 x219 -1 x223 -1 x228 -1 x237 -1 x246 -1 x255 -1 x260 -1 x269 -1 x278 -1 x287 -1 x296 -1 x301 -1 x310 -1 x319 -1 x328 -1 x337 -1 x342 -1 x351 -1 x360 -1 x369 -1 x378 -1 x383 -1 x392 -14 x488 >= -15 ;
+1 x9 +1 x18 +1 x27 +1 x36 +1 x45 +1 x54 +1 x63 +1 x72 +1 x81 +1 x90 +1 x99 +1 x108 +1 x117 +1 x126 +1 x135 +1 x144 +1 x153 +1 x162 +1 x171 +1 x176 +1 x180 +1 x185 +1 x189 +1 x194 +1 x198 +1 x203 +1 x207 +1 x212 +1 x216 +1 x221 +1 x225 +1 x230 +1 x239 +1 x248 +1 x257 +1 x266 +1 x275 +1 x284 +1 x293 +1 x302 +1 x311 +1 x320 +1 x329 +1 x338 +1 x347 +1 x356 +1 x365 +1 x374 +1 x383 +1 x392 >= 1 ;
-1 x9 -1 x18 -1 x27 -1 x36 -1 x45 -1 x54 -1 x63 -1 x72 -1 x81 -1 x90 -1 x99 -1 x108 -1 x117 -1 x126 -1 x135 -1 x144 -1 x153 -1 x162 -1 x171 -1 x176 -1 x180 -1 x185 -1 x189 -1 x194 -1 x198 -1 x203 -1 x207 -1 x212 -1 x216 -1 x221 -1 x225 -1 x230 -1 x239 -1 x248 -1 x257 -1 x266 -1 x275 -1 x284 -1 x293 -1 x302 -1 x311 -1 x320 -1 x329 -1 x338 -1 x347 -1 x356 -1 x365 -1 x374 -1 x383 -1 x392 -14 x489 >= -15 ;
+1 x9 +1 x18 +1 x22 +1 x27 +1 x31 +1 x40 +1 x49 +1 x58 +1 x67 +1 x76 +1 x80 +1 x89 +1 x98 +1 x107 +1 x116 +1 x125 +1 x129 +1 x138 +1 x147 +1 x156 +1 x165 +1 x174 +1 x178 +1 x187 +1 x196 +1 x205 +1 x214 +1 x223 +1 x227 +1 x236 +1 x245 +1 x254 +1 x263 +1 x272 +1 x276 +1 x285 +1 x294 +1 x303 +1 x312 +1 x321 +1 x325 +1 x334 +1 x343 +1 x352 +1 x361 +1 x370 +1 x374 +1 x379 +1 x383 +1 x392 >= 1 ;
-1 x9 -1 x18 -1 x22 -1 x27 -1 x31 -1 x40 -1 x49 -1 x58 -1 x67 -1 x76 -1 x80 -1 x89 -1 x98 -1 x107 -1 x116 -1 x125 -1 x129 -1 x138 -1 x147 -1 x156 -1 x165 -1 x174 -1 x178 -1 x187 -1 x196 -1 x205 -1 x214 -1 x223 -1 x227 -1 x236 -1 x245 -1 x254 -1 x263 -1 x272 -1 x276 -1 x285 -1 x294 -1 x303 -1 x312 -1 x321 -1 x325 -1 x334 -1 x343 -1 x352 -1 x361 -1 x370 -1 x374 -1 x379 -1 x383 -1 x392 -14 x490 >= -15 ;
+1 x9 +1 x13 +1 x22 +1 x31 +1 x35 +1 x44 +1 x53 +1 x66 +1 x75 +1 x84 +1 x88 +1 x97 +1 x106 +1 x110 +1 x119 +1 x128 +1 x132 +1 x141 +1 x150 +1 x154 +1 x163 +1 x172 +1 x176 +1 x185 +1 x194 +1 x207 +1 x216 +1 x225 +1 x229 +1 x238 +1 x247 +1 x251 +1 x260 +1 x269 +1 x273 +1 x282 +1 x291 +1 x295 +1 x304 +1 x313 +1 x317 +1 x326 +1 x335 +1 x348 +1 x357 +1 x366 +1 x370 +1 x379 +1 x388 +1 x392 >= 1 ;
-1 x9 -1 x13 -1 x22 -1 x31 -1 x35 -1 x44 -1 x53 -1 x66 -1 x75 -1 x84 -1 x88 -1 x97 -1 x106 -1 x110 -1 x119 -1 x128 -1 x132 -1 x141 -1 x150 -1 x154 -1 x163 -1 x172 -1 x176 -1 x185 -1 x194 -1 x207 -1 x216 -1 x225 -1 x229 -1 x238 -1 x247 -1 x251 -1 x260 -1 x269 -1 x273 -1 x282 -1 x291 -1 x295 -1 x304 -1 x313 -1 x317 -1 x326 -1 x335 -1 x348 -1 x357 -1 x366 -1 x370 -1 x379 -1 x388 -1 x392 -14 x491 >= -15 ;
+1 x13 +1 x22 +1 x26 +1 x35 +1 x39 +1 x48 +1 x61 +1 x70 +1 x74 +1 x83 +1 x87 +1 x96 +1 x100 +1 x109 +1 x122 +1 x131 +1 x135 +1 x144 +1 x148 +1 x157 +1 x161 +1 x170 +1 x183 +1 x192 +1 x196 +1 x205 +1 x209 +1 x218 +1 x231 +1 x240 +1 x244 +1 x253 +1 x257 +1 x266 +1 x270 +1 x279 +1 x292 +1 x301 +1 x305 +1 x314 +1 x318 +1 x327 +1 x331 +1 x340 +1 x353 +1 x362 +1 x366 +1 x375 +1 x379 +1 x388 >= 1 ;
-1 x13 -1 x22 -1 x26 -1 x35 -1 x39 -1 x48 -1 x61 -1 x70 -1 x74 -1 x83 -1 x87 -1 x96 -1 x100 -1 x109 -1 x122 -1 x131 -1 x135 -1 x144 -1 x148 -1 x157 -1 x161 -1 x170 -1 x183 -1 x192 -1 x196 -1 x205 -1 x209 -1 x218 -1 x231 -1 x240 -1 x244 -1 x253 -1 x257 -1 x266 -1 x270 -1 x279 -1 x292 -1 x301 -1 x305 -1 x314 -1 x318 -1 x327 -1 x331 -1 x340 -1 x353 -1 x362 -1 x366 -1 x375 -1 x379 -1 x388 -14 x492 >= -15 ;
+1 x13 +1 x17 +1 x26 +1 x30 +1 x39 +1 x43 +1 x52 +1 x56 +1 x69 +1 x82 +1 x86 +1 x95 +1 x99 +1 x108 +1 x112 +1 x121 +1 x125 +1 x138 +1 x151 +1 x155 +1 x164 +1 x168 +1 x177 +1 x181 +1 x194 +1 x207 +1 x220 +1 x224 +1 x233 +1 x237 +1 x246 +1 x250 +1 x263 +1 x276 +1 x280 +1 x289 +1 x293 +1 x302 +1 x306 +1 x315 +1 x319 +1 x332 +1 x345 +1 x349 +1 x358 +1 x362 +1 x371 +1 x375 +1 x384 +1 x388 >= 1 ;
-1 x13 -1 x17 -1 x26 -1 x30 -1 x39 -1 x43 -1 x52 -1 x56 -1 x69 -1 x82 -1 x86 -1 x95 -1 x99 -1 x108 -1 x112 -1 x121 -1 x125 -1 x138 -1 x151 -1 x155 -1 x164 -1 x168 -1 x177 -1 x181 -1 x194 -1 x207 -1 x220 -1 x224 -1 x233 -1 x237 -1 x246 -1 x250 -1 x263 -1 x276 -1 x280 -1 x289 -1 x293 -1 x302 -1 x306 -1 x315 -1 x319 -1 x332 -1 x345 -1 x349 -1 x358 -1 x362 -1 x371 -1 x375 -1 x384 -1 x388 -14 x493 >= -15 ;
+1 x4 +1 x13 +1 x17 +1 x30 +1 x34 +1 x47 +1 x51 +1 x64 +1 x68 +1 x77 +1 x81 +1 x94 +1 x98 +1 x111 +1 x115 +1 x128 +1 x132 +1 x141 +1 x145 +1 x158 +1 x162 +1 x175 +1 x179 +1 x192 +1 x196 +1 x205 +1 x209 +1 x222 +1 x226 +1 x239 +1 x243 +1 x256 +1 x260 +1 x269 +1 x273 +1 x286 +1 x290 +1 x303 +1 x307 +1 x320 +1 x324 +1 x333 +1 x337 +1 x350 +1 x354 +1 x367 +1 x371 +1 x384 +1 x388 +1 x397 >= 1 ;
-1 x4 -1 x13 -1 x17 -1 x30 -1 x34 -1 x47 -1 x51 -1 x64 -1 x68 -1 x77 -1 x81 -1 x94 -1 x98 -1 x111 -1 x115 -1 x128 -1 x132 -1 x141 -1 x145 -1 x158 -1 x162 -1 x175 -1 x179 -1 x192 -1 x196 -1 x205 -1 x209 -1 x222 -1 x226 -1 x239 -1 x243 -1 x256 -1 x260 -1 x269 -1 x273 -1 x286 -1 x290 -1 x303 -1 x307 -1 x320 -1 x324 -1 x333 -1 x337 -1 x350 -1 x354 -1 x367 -1 x371 -1 x384 -1 x388 -1 x397 -14 x494 >= -15 ;
+1 x4 +1 x17 +1 x21 +1 x34 +1 x38 +1 x42 +1 x55 +1 x59 +1 x72 +1 x76 +1 x80 +1 x93 +1 x97 +1 x110 +1 x114 +1 x118 +1 x131 +1 x135 +1 x148 +1 x152 +1 x156 +1 x169 +1 x173 +1 x190 +1 x194 +1 x207 +1 x211 +1 x228 +1 x232 +1 x245 +1 x249 +1 x253 +1 x266 +1 x270 +1 x283 +1 x287 +1 x291 +1 x304 +1 x308 +1 x321 +1 x325 +1 x329 +1 x342 +1 x346 +1 x359 +1 x363 +1 x367 +1 x380 +1 x384 +1 x397 >= 1 ;
-1 x4 -1 x17 -1 x21 -1 x34 -1 x38 -1 x42 -1 x55 -1 x59 -1 x72 -1 x76 -1 x80 -1 x93 -1 x97 -1 x110 -1 x114 -1 x118 -1 x131 -1 x135 -1 x148 -1 x152 -1 x156 -1 x169 -1 x173 -1 x190 -1 x194 -1 x207 -1 x211 -1 x228 -1 x232 -1 x245 -1 x249 -1 x253 -1 x266 -1 x270 -1 x283 -1 x287 -1 x291 -1 x304 -1 x308 -1 x321 -1 x325 -1 x329 -1 x342 -1 x346 -1 x359 -1 x363 -1 x367 -1 x380 -1 x384 -1 x397 -14 x495 >= -15 ;
+1 x4 +1 x21 +1 x25 +1 x29 +1 x42 +1 x46 +1 x50 +1 x67 +1 x71 +1 x75 +1 x92 +1 x96 +1 x100 +1 x113 +1 x117 +1 x121 +1 x138 +1 x142 +1 x146 +1 x163 +1 x167 +1 x171 +1 x184 +1 x188 +1 x192 +1 x209 +1 x213 +1 x217 +1 x230 +1 x234 +1 x238 +1 x255 +1 x259 +1 x263 +1 x280 +1 x284 +1 x288 +1 x301 +1 x305 +1 x309 +1 x326 +1 x330 +1 x334 +1 x351 +1 x355 +1 x359 +1 x372 +1 x376 +1 x380 +1 x397 >= 1 ;
-1 x4 -1 x21 -1 x25 -1 x29 -1 x42 -1 x46 -1 x50 -1 x67 -1 x71 -1 x75 -1 x92 -1 x96 -1 x100 -1 x113 -1 x117 -1 x121 -1 x138 -1 x142 -1 x146 -1 x163 -1 x167 -1 x171 -1 x184 -1 x188 -1 x192 -1 x209 -1 x213 -1 x217 -1 x230 -1 x234 -1 x238 -1 x255 -1 x259 -1 x263 -1 x280 -1 x284 -1 x288 -1 x301 -1 x305 -1 x309 -1 x326 -1 x330 -1 x334 -1 x351 -1 x355 -1 x359 -1 x372 -1 x376 -1 x380 -1 x397 -14 x496 >= -15 ;
+1 x4 +1 x25 +1 x29 +1 x33 +1 x37 +1 x54 +1 x58 +1 x62 +1 x66 +1 x87 +1 x91 +1 x95 +1 x99 +1 x116 +1 x120 +1 x124 +1 x128 +1 x149 +1 x153 +1 x157 +1 x161 +1 x178 +1 x182 +1 x186 +1 x190 +1 x211 +1 x215 +1 x219 +1 x223 +1 x240 +1 x244 +1 x248 +1 x252 +1 x273 +1 x277 +1 x281 +1 x285 +1 x302 +1 x306 +1 x310 +1 x314 +1 x335 +1 x339 +1 x343 +1 x347 +1 x364 +1 x368 +1 x372 +1 x376 +1 x397 >= 1 ;
-1 x4 -1 x25 -1 x29 -1 x33 -1 x37 -1 x54 -1 x58 -1 x62 -1 x66 -1 x87 -1 x91 -1 x95 -1 x99 -1 x116 -1 x120 -1 x124 -1 x128 -1 x149 -1 x153 -1 x157 -1 x161 -1 x178 -1 x182 -1 x186 -1 x190 -1 x211 -1 x215 -1 x219 -1 x223 -1 x240 -1 x244 -1 x248 -1 x252 -1 x273 -1 x277 -1 x281 -1 x285 -1 x302 -1 x306 -1 x310 -1 x314 -1 x335 -1 x339 -1 x343 -1 x347 -1 x364 -1 x368 -1 x372 -1 x376 -1 x397 -14 x497 >= -15 ;
+1 x4 +1 x8 +1 x37 +1 x41 +1 x45 +1 x49 +1 x53 +1 x78 +1 x82 +1 x86 +1 x90 +1 x94 +1 x98 +1 x123 +1 x127 +1 x131 +1 x135 +1 x139 +1 x143 +1 x168 +1 x172 +1 x176 +1 x180 +1 x184 +1 x188 +1 x213 +1 x217 +1 x221 +1 x225 +1 x229 +1 x233 +1 x258 +1 x262 +1 x266 +1 x270 +1 x274 +1 x278 +1 x303 +1 x307 +1 x311 +1 x315 +1 x319 +1 x323 +1 x348 +1 x352 +1 x356 +1 x360 +1 x364 +1 x393 +1 x397 >= 1 ;
-1 x4 -1 x8 -1 x37 -1 x41 -1 x45 -1 x49 -1 x53 -1 x78 -1 x82 -1 x86 -1 x90 -1 x94 -1 x98 -1 x123 -1 x127 -1 x131 -1 x135 -1 x139 -1 x143 -1 x168 -1 x172 -1 x176 -1 x180 -1 x184 -1 x188 -1 x213 -1 x217 -1 x221 -1 x225 -1 x229 -1 x233 -1 x258 -1 x262 -1 x266 -1 x270 -1 x274 -1 x278 -1 x303 -1 x307 -1 x311 -1 x315 -1 x319 -1 x323 -1 x348 -1 x352 -1 x356 -1 x360 -1 x364 -1 x393 -1 x397 -14 x498 >= -15 ;
+1 x4 +1 x8 +1 x12 +1 x16 +1 x20 +1 x61 +1 x65 +1 x69 +1 x73 +1 x77 +1 x81 +1 x85 +1 x89 +1 x93 +1 x97 +1 x142 +1 x146 +1 x150 +1 x154 +1 x158 +1 x162 +1 x166 +1 x170 +1 x174 +1 x178 +1 x223 +1 x227 +1 x231 +1 x235 +1 x239 +1 x243 +1 x247 +1 x251 +1 x255 +1 x259 +1 x304 +1 x308 +1 x312 +1 x316 +1 x320 +1 x324 +1 x328 +1 x332 +1 x336 +1 x340 +1 x381 +1 x385 +1 x389 +1 x393 +1 x397 >= 1 ;
-1 x4 -1 x8 -1 x12 -1 x16 -1 x20 -1 x61 -1 x65 -1 x69 -1 x73 -1 x77 -1 x81 -1 x85 -1 x89 -1 x93 -1 x97 -1 x142 -1 x146 -1 x150 -1 x154 -1 x158 -1 x162 -1 x166 -1 x170 -1 x174 -1 x178 -1 x223 -1 x227 -1 x231 -1 x235 -1 x239 -1 x243 -1 x247 -1 x251 -1 x255 -1 x259 -1 x304 -1 x308 -1 x312 -1 x316 -1 x320 -1 x324 -1 x328 -1 x332 -1 x336 -1 x340 -1 x381 -1 x385 -1 x389 -1 x393 -1 x397 -14 x499 >= -15 ;
+1 x4 +1 x8 +1 x12 +1 x16 +1 x20 +1 x24 +1 x28 +1 x32 +1 x36 +1 x40 +1 x44 +1 x48 +1 x52 +1 x56 +1 x60 +1 x64 +1 x68 +1 x72 +1 x76 +1 x80 +1 x84 +1 x88 +1 x92 +1 x96 +1 x100 +1 x301 +1 x305 +1 x309 +1 x313 +1 x317 +1 x321 +1 x325 +1 x329 +1 x333 +1 x337 +1 x341 +1 x345 +1 x349 +1 x353 +1 x357 +1 x361 +1 x365 +1 x369 +1 x373 +1 x377 +1 x381 +1 x385 +1 x389 +1 x393 +1 x397 >= 1 ;
-1 x4 -1 x8 -1 x12 -1 x16 -1 x20 -1 x24 -1 x28 -1 x32 -1 x36 -1 x40 -1 x44 -1 x48 -1 x52 -1 x56 -1 x60 -1 x64 -1 x68 -1 x72 -1 x76 -1 x80 -1 x84 -1 x88 -1 x92 -1 x96 -1 x100 -1 x301 -1 x305 -1 x309 -1 x313 -1 x317 -1 x321 -1 x325 -1 x329 -1 x333 -1 x337 -1 x341 -1 x345 -1 x349 -1 x353 -1 x357 -1 x361 -1 x365 -1 x369 -1 x373 -1 x377 -1 x381 -1 x385 -1 x389 -1 x393 -1 x397 -14 x500 >= -15 ;
+1 x4 +1 x8 +1 x12 +1 x16 +1 x20 +1 x24 +1 x28 +1 x32 +1 x103 +1 x107 +1 x111 +1 x115 +1 x119 +1 x123 +1 x127 +1 x131 +1 x135 +1 x139 +1 x143 +1 x147 +1 x151 +1 x155 +1 x159 +1 x163 +1 x167 +1 x234 +1 x238 +1 x242 +1 x246 +1 x250 +1 x254 +1 x258 +1 x262 +1 x266 +1 x270 +1 x274 +1 x278 +1 x282 +1 x286 +1 x290 +1 x294 +1 x298 +1 x369 +1 x373 +1 x377 +1 x381 +1 x385 +1 x389 +1 x393 +1 x397 >= 1 ;
-1 x4 -1 x8 -1 x12 -1 x16 -1 x20 -1 x24 -1 x28 -1 x32 -1 x103 -1 x107 -1 x111 -1 x115 -1 x119 -1 x123 -1 x127 -1 x131 -1 x135 -1 x139 -1 x143 -1 x147 -1 x151 -1 x155 -1 x159 -1 x163 -1 x167 -1 x234 -1 x238 -1 x242 -1 x246 -1 x250 -1 x254 -1 x258 -1 x262 -1 x266 -1 x270 -1 x274 -1 x278 -1 x282 -1 x286 -1 x290 -1 x294 -1 x298 -1 x369 -1 x373 -1 x377 -1 x381 -1 x385 -1 x389 -1 x393 -1 x397 -14 x501 >= -15 ;
+1 x4 +1 x8 +1 x12 +1 x43 +1 x47 +1 x51 +1 x55 +1 x59 +1 x63 +1 x67 +1 x71 +1 x102 +1 x106 +1 x110 +1 x114 +1 x118 +1 x122 +1 x126 +1 x161 +1 x165 +1 x169 +1 x173 +1 x177 +1 x181 +1 x185 +1 x216 +1 x220 +1 x224 +1 x228 +1 x232 +1 x236 +1 x240 +1 x275 +1 x279 +1 x283 +1 x287 +1 x291 +1 x295 +1 x299 +1 x330 +1 x334 +1 x338 +1 x342 +1 x346 +1 x350 +1 x354 +1 x358 +1 x389 +1 x393 +1 x397 >= 1 ;
-1 x4 -1 x8 -1 x12 -1 x43 -1 x47 -1 x51 -1 x55 -1 x59 -1 x63 -1 x67 -1 x71 -1 x102 -1 x106 -1 x110 -1 x114 -1 x118 -1 x122 -1 x126 -1 x161 -1 x165 -1 x169 -1 x173 -1 x177 -1 x181 -1 x185 -1 x216 -1 x220 -1 x224 -1 x228 -1 x232 -1 x236 -1 x240 -1 x275 -1 x279 -1 x283 -1 x287 -1 x291 -1 x295 -1 x299 -1 x330 -1 x334 -1 x338 -1 x342 -1 x346 -1 x350 -1 x354 -1 x358 -1 x389 -1 x393 -1 x397 -14 x502 >= -15 ;
+1 x4 +1 x8 +1 x31 +1 x35 +1 x39 +1 x43 +1 x66 +1 x70 +1 x74 +1 x78 +1 x82 +1 x101 +1 x105 +1 x109 +1 x113 +1 x117 +1 x140 +1 x144 +1 x148 +1 x152 +1 x175 +1 x179 +1 x183 +1 x187 +1 x191 +1 x210 +1 x214 +1 x218 +1 x222 +1 x226 +1 x249 +1 x253 +1 x257 +1 x261 +1 x284 +1 x288 +1 x292 +1 x296 +1 x300 +1 x319 +1 x323 +1 x327 +1 x331 +1 x335 +1 x358 +1 x362 +1 x366 +1 x370 +1 x393 +1 x397 >= 1 ;
-1 x4 -1 x8 -1 x31 -1 x35 -1 x39 -1 x43 -1 x66 -1 x70 -1 x74 -1 x78 -1 x82 -1 x101 -1 x105 -1 x109 -1 x113 -1 x117 -1 x140 -1 x144 -1 x148 -1 x152 -1 x175 -1 x179 -1 x183 -1 x187 -1 x191 -1 x210 -1 x214 -1 x218 -1 x222 -1 x226 -1 x249 -1 x253 -1 x257 -1 x261 -1 x284 -1 x288 -1 x292 -1 x296 -1 x300 -1 x319 -1 x323 -1 x327 -1 x331 -1 x335 -1 x358 -1 x362 -1 x366 -1 x370 -1 x393 -1 x397 -14 x503 >= -15 ;
+1 x4 +1 x23 +1 x27 +1 x31 +1 x50 +1 x54 +1 x58 +1 x77 +1 x81 +1 x85 +1 x104 +1 x108 +1 x112 +1 x127 +1 x131 +1 x135 +1 x139 +1 x154 +1 x158 +1 x162 +1 x166 +1 x181 +1 x185 +1 x189 +1 x193 +1 x208 +1 x212 +1 x216 +1 x220 +1 x235 +1 x239 +1 x243 +1 x247 +1 x262 +1 x266 +1 x270 +1 x274 +1 x289 +1 x293 +1 x297 +1 x316 +1 x320 +1 x324 +1 x343 +1 x347 +1 x351 +1 x370 +1 x374 +1 x378 +1 x397 >= 1 ;
-1 x4 -1 x23 -1 x27 -1 x31 -1 x50 -1 x54 -1 x58 -1 x77 -1 x81 -1 x85 -1 x104 -1 x108 -1 x112 -1 x127 -1 x131 -1 x135 -1 x139 -1 x154 -1 x158 -1 x162 -1 x166 -1 x181 -1 x185 -1 x189 -1 x193 -1 x208 -1 x212 -1 x216 -1 x220 -1 x235 -1 x239 -1 x243 -1 x247 -1 x262 -1 x266 -1 x270 -1 x274 -1 x289 -1 x293 -1 x297 -1 x316 -1 x320 -1 x324 -1 x343 -1 x347 -1 x351 -1 x370 -1 x374 -1 x378 -1 x397 -14 x504 >= -15 ;
+1 x4 +1 x19 +1 x23 +1 x38 +1 x42 +1 x46 +1 x61 +1 x65 +1 x80 +1 x84 +1 x88 +1 x103 +1 x107 +1 x122 +1 x126 +1 x130 +1 x145 +1 x149 +1 x153 +1 x164 +1 x168 +1 x172 +1 x187 +1 x191 +1 x195 +1 x206 +1 x210 +1 x214 +1 x229 +1 x233 +1 x237 +1 x248 +1 x252 +1 x256 +1 x271 +1 x275 +1 x279 +1 x294 +1 x298 +1 x313 +1 x317 +1 x321 +1 x336 +1 x340 +1 x355 +1 x359 +1 x363 +1 x378 +1 x382 +1 x397 >= 1 ;
-1 x4 -1 x19 -1 x23 -1 x38 -1 x42 -1 x46 -1 x61 -1 x65 -1 x80 -1 x84 -1 x88 -1 x103 -1 x107 -1 x122 -1 x126 -1 x130 -1 x145 -1 x149 -1 x153 -1 x164 -1 x168 -1 x172 -1 x187 -1 x191 -1 x195 -1 x206 -1 x210 -1 x214 -1 x229 -1 x233 -1 x237 -1 x248 -1 x252 -1 x256 -1 x271 -1 x275 -1 x279 -1 x294 -1 x298 -1 x313 -1 x317 -1 x321 -1 x336 -1 x340 -1 x355 -1 x359 -1 x363 -1 x378 -1 x382 -1 x397 -14 x505 >= -15 ;
+1 x4 +1 x15 +1 x19 +1 x34 +1 x38 +1 x49 +1 x53 +1 x68 +1 x72 +1 x83 +1 x87 +1 x91 +1 x102 +1 x106 +1 x121 +1 x125 +1 x136 +1 x140 +1 x155 +1 x159 +1 x170 +1 x174 +1 x178 +1 x189 +1 x193 +1 x208 +1 x212 +1 x223 +1 x227 +1 x231 +1 x242 +1 x246 +1 x261 +1 x265 +1 x276 +1 x280 +1 x295 +1 x299 +1 x310 +1 x314 +1 x318 +1 x329 +1 x333 +1 x348 +1 x352 +1 x363 +1 x367 +1 x382 +1 x386 +1 x397 >= 1 ;
-1 x4 -1 x15 -1 x19 -1 x34 -1 x38 -1 x49 -1 x53 -1 x68 -1 x72 -1 x83 -1 x87 -1 x91 -1 x102 -1 x106 -1 x121 -1 x125 -1 x136 -1 x140 -1 x155 -1 x159 -1 x170 -1 x174 -1 x178 -1 x189 -1 x193 -1 x208 -1 x212 -1 x223 -1 x227 -1 x231 -1 x242 -1 x246 -1 x261 -1 x265 -1 x276 -1 x280 -1 x295 -1 x299 -1 x310 -1 x314 -1 x318 -1 x329 -1 x333 -1 x348 -1 x352 -1 x363 -1 x367 -1 x382 -1 x386 -1 x397 -14 x506 >= -15 ;
+1 x15 +1 x26 +1 x30 +1 x41 +1 x45 +1 x56 +1 x60 +1 x71 +1 x75 +1 x86 +1 x90 +1 x101 +1 x105 +1 x116 +1 x120 +1 x131 +1 x135 +1 x146 +1 x150 +1 x161 +1 x165 +1 x176 +1 x180 +1 x191 +1 x195 +1 x206 +1 x210 +1 x221 +1 x225 +1 x236 +1 x240 +1 x251 +1 x255 +1 x266 +1 x270 +1 x281 +1 x285 +1 x296 +1 x300 +1 x311 +1 x315 +1 x326 +1 x330 +1 x341 +1 x345 +1 x356 +1 x360 +1 x371 +1 x375 +1 x386 >= 1 ;
-1 x15 -1 x26 -1 x30 -1 x41 -1 x45 -1 x56 -1 x60 -1 x71 -1 x75 -1 x86 -1 x90 -1 x101 -1 x105 -1 x116 -1 x120 -1 x131 -1 x135 -1 x146 -1 x150 -1 x161 -1 x165 -1 x176 -1 x180 -1 x191 -1 x195 -1 x206 -1 x210 -1 x221 -1 x225 -1 x236 -1 x240 -1 x251 -1 x255 -1 x266 -1 x270 -1 x281 -1 x285 -1 x296 -1 x300 -1 x311 -1 x315 -1 x326 -1 x330 -1 x341 -1 x345 -1 x356 -1 x360 -1 x371 -1 x375 -1 x386 -14 x507 >= -15 ;
+1 x11 +1 x15 +1 x26 +1 x37 +1 x41 +1 x52 +1 x63 +1 x67 +1 x78 +1 x89 +1 x93 +1 x104 +1 x115 +1 x119 +1 x130 +1 x141 +1 x145 +1 x152 +1 x156 +1 x167 +1 x171 +1 x178 +1 x182 +1 x193 +1 x197 +1 x204 +1 x208 +1 x219 +1 x223 +1 x230 +1 x234 +1 x245 +1 x249 +1 x256 +1 x260 +1 x271 +1 x282 +1 x286 +1 x297 +1 x308 +1 x312 +1 x323 +1 x334 +1 x338 +1 x349 +1 x360 +1 x364 +1 x375 +1 x386 +1 x390 >= 1 ;
-1 x11 -1 x15 -1 x26 -1 x37 -1 x41 -1 x52 -1 x63 -1 x67 -1 x78 -1 x89 -1 x93 -1 x104 -1 x115 -1 x119 -1 x130 -1 x141 -1 x145 -1 x152 -1 x156 -1 x167 -1 x171 -1 x178 -1 x182 -1 x193 -1 x197 -1 x204 -1 x208 -1 x219 -1 x223 -1 x230 -1 x234 -1 x245 -1 x249 -1 x256 -1 x260 -1 x271 -1 x282 -1 x286 -1 x297 -1 x308 -1 x312 -1 x323 -1 x334 -1 x338 -1 x349 -1 x360 -1 x364 -1 x375 -1 x386 -1 x390 -14 x508 >= -15 ;
+1 x11 +1 x22 +1 x33 +1 x37 +1 x44 +1 x48 +1 x55 +1 x59 +1 x66 +1 x70 +1 x81 +1 x92 +1 x103 +1 x114 +1 x125 +1 x136 +1 x140 +1 x147 +1 x151 +1 x158 +1 x162 +1 x169 +1 x173 +1 x184 +1 x195 +1 x206 +1 x217 +1 x228 +1 x232 +1 x239 +1 x243 +1 x250 +1 x254 +1 x261 +1 x265 +1 x276 +1 x287 +1 x298 +1 x309 +1 x320 +1 x331 +1 x335 +1 x342 +1 x346 +1 x353 +1 x357 +1 x364 +1 x368 +1 x379 +1 x390 >= 1 ;
-1 x11 -1 x22 -1 x33 -1 x37 -1 x44 -1 x48 -1 x55 -1 x59 -1 x66 -1 x70 -1 x81 -1 x92 -1 x103 -1 x114 -1 x125 -1 x136 -1 x140 -1 x147 -1 x151 -1 x158 -1 x162 -1 x169 -1 x173 -1 x184 -1 x195 -1 x206 -1 x217 -1 x228 -1 x232 -1 x239 -1 x243 -1 x250 -1 x254 -1 x261 -1 x265 -1 x276 -1 x287 -1 x298 -1 x309 -1 x320 -1 x331 -1 x335 -1 x342 -1 x346 -1 x353 -1 x357 -1 x364 -1 x368 -1 x379 -1 x390 -14 x509 >= -15 ;
+1 x11 +1 x18 +1 x22 +1 x29 +1 x33 +1 x40 +1 x51 +1 x62 +1 x73 +1 x80 +1 x84 +1 x91 +1 x95 +1 x102 +1 x113 +1 x124 +1 x135 +1 x142 +1 x146 +1 x153 +1 x164 +1 x175 +1 x186 +1 x193 +1 x197 +1 x204 +1 x208 +1 x215 +1 x226 +1 x237 +1 x248 +1 x255 +1 x259 +1 x266 +1 x277 +1 x288 +1 x299 +1 x306 +1 x310 +1 x317 +1 x321 +1 x328 +1 x339 +1 x350 +1 x361 +1 x368 +1 x372 +1 x379 +1 x383 +1 x390 >= 1 ;
-1 x11 -1 x18 -1 x22 -1 x29 -1 x33 -1 x40 -1 x51 -1 x62 -1 x73 -1 x80 -1 x84 -1 x91 -1 x95 -1 x102 -1 x113 -1 x124 -1 x135 -1 x142 -1 x146 -1 x153 -1 x164 -1 x175 -1 x186 -1 x193 -1 x197 -1 x204 -1 x208 -1 x215 -1 x226 -1 x237 -1 x248 -1 x255 -1 x259 -1 x266 -1 x277 -1 x288 -1 x299 -1 x306 -1 x310 -1 x317 -1 x321 -1 x328 -1 x339 -1 x350 -1 x361 -1 x368 -1 x372 -1 x379 -1 x383 -1 x390 -14 x510 >= -15 ;
+1 x7 +1 x11 +1 x18 +1 x29 +1 x36 +1 x47 +1 x54 +1 x58 +1 x65 +1 x76 +1 x83 +1 x94 +1 x101 +1 x112 +1 x119 +1 x123 +1 x130 +1 x141 +1 x148 +1 x159 +1 x166 +1 x170 +1 x177 +1 x188 +1 x195 +1 x206 +1 x213 +1 x224 +1 x231 +1 x235 +1 x242 +1 x253 +1 x260 +1 x271 +1 x278 +1 x282 +1 x289 +1 x300 +1 x307 +1 x318 +1 x325 +1 x336 +1 x343 +1 x347 +1 x354 +1 x365 +1 x372 +1 x383 +1 x390 +1 x394 >= 1 ;
-1 x7 -1 x11 -1 x18 -1 x29 -1 x36 -1 x47 -1 x54 -1 x58 -1 x65 -1 x76 -1 x83 -1 x94 -1 x101 -1 x112 -1 x119 -1 x123 -1 x130 -1 x141 -1 x148 -1 x159 -1 x166 -1 x170 -1 x177 -1 x188 -1 x195 -1 x206 -1 x213 -1 x224 -1 x231 -1 x235 -1 x242 -1 x253 -1 x260 -1 x271 -1 x278 -1 x282 -1 x289 -1 x300 -1 x307 -1 x318 -1 x325 -1 x336 -1 x343 -1 x347 -1 x354 -1 x365 -1 x372 -1 x383 -1 x390 -1 x394 -14 x511 >= -15 ;
+1 x7 +1 x18 +1 x25 +1 x32 +1 x36 +1 x43 +1 x50 +1 x61 +1 x68 +1 x75 +1 x86 +1 x93 +1 x104 +1 x111 +1 x118 +1 x129 +1 x136 +1 x143 +1 x147 +1 x154 +1 x161 +1 x172 +1 x179 +1 x186 +1 x197 +1 x204 +1 x215 +1 x222 +1 x229 +1 x240 +1 x247 +1 x254 +1 x258 +1 x265 +1 x272 +1 x283 +1 x290 +1 x297 +1 x308 +1 x315 +1 x326 +1 x333 +1 x340 +1 x351 +1 x358 +1 x365 +1 x369 +1 x376 +1 x383 +1 x394 >= 1 ;
-1 x7 -1 x18 -1 x25 -1 x32 -1 x36 -1 x43 -1 x50 -1 x61 -1 x68 -1 x75 -1 x86 -1 x93 -1 x104 -1 x111 -1 x118 -1 x129 -1 x136 -1 x143 -1 x147 -1 x154 -1 x161 -1 x172 -1 x179 -1 x186 -1 x197 -1 x204 -1 x215 -1 x222 -1 x229 -1 x240 -1 x247 -1 x254 -1 x258 -1 x265 -1 x272 -1 x283 -1 x290 -1 x297 -1 x308 -1 x315 -1 x326 -1 x333 -1 x340 -1 x351 -1 x358 -1 x365 -1 x369 -1 x376 -1 x383 -1 x394 -14 x512 >= -15 ;
+1 x7 +1 x14 +1 x25 +1 x32 +1 x39 +1 x46 +1 x57 +1 x64 +1 x71 +1 x78 +1 x85 +1 x96 +1 x103 +1 x110 +1 x117 +1 x124 +1 x135 +1 x142 +1 x149 +1 x156 +1 x167 +1 x174 +1 x181 +1 x188 +1 x195 +1 x206 +1 x213 +1 x220 +1 x227 +1 x234 +1 x245 +1 x252 +1 x259 +1 x266 +1 x277 +1 x284 +1 x291 +1 x298 +1 x305 +1 x316 +1 x323 +1 x330 +1 x337 +1 x344 +1 x355 +1 x362 +1 x369 +1 x376 +1 x387 +1 x394 >= 1 ;
-1 x7 -1 x14 -1 x25 -1 x32 -1 x39 -1 x46 -1 x57 -1 x64 -1 x71 -1 x78 -1 x85 -1 x96 -1 x103 -1 x110 -1 x117 -1 x124 -1 x135 -1 x142 -1 x149 -1 x156 -1 x167 -1 x174 -1 x181 -1 x188 -1 x195 -1 x206 -1 x213 -1 x220 -1 x227 -1 x234 -1 x245 -1 x252 -1 x259 -1 x266 -1 x277 -1 x284 -1 x291 -1 x298 -1 x305 -1 x316 -1 x323 -1 x330 -1 x337 -1 x344 -1 x355 -1 x362 -1 x369 -1 x376 -1 x387 -1 x394 -14 x513 >= -15 ;
+1 x7 +1 x14 +1 x21 +1 x28 +1 x35 +1 x42 +1 x60 +1 x67 +1 x74 +1 x81 +1 x88 +1 x95 +1 x102 +1 x109 +1 x116 +1 x123 +1 x130 +1 x137 +1 x144 +1 x162 +1 x169 +1 x176 +1 x183 +1 x190 +1 x197 +1 x204 +1 x211 +1 x218 +1 x225 +1 x232 +1 x239 +1 x257 +1 x264 +1 x271 +1 x278 +1 x285 +1 x292 +1 x299 +1 x306 +1 x313 +1 x320 +1 x327 +1 x334 +1 x341 +1 x359 +1 x366 +1 x373 +1 x380 +1 x387 +1 x394 >= 1 ;
-1 x7 -1 x14 -1 x21 -1 x28 -1 x35 -1 x42 -1 x60 -1 x67 -1 x74 -1 x81 -1 x88 -1 x95 -1 x102 -1 x109 -1 x116 -1 x123 -1 x130 -1 x137 -1 x144 -1 x162 -1 x169 -1 x176 -1 x183 -1 x190 -1 x197 -1 x204 -1 x211 -1 x218 -1 x225 -1 x232 -1 x239 -1 x257 -1 x264 -1 x271 -1 x278 -1 x285 -1 x292 -1 x299 -1 x306 -1 x313 -1 x320 -1 x327 -1 x334 -1 x341 -1 x359 -1 x366 -1 x373 -1 x380 -1 x387 -1 x394 -14 x514 >= -15 ;
+1 x7 +1 x14 +1 x21 +1 x28 +1 x35 +1 x42 +1 x49 +1 x56 +1 x80 +1 x87 +1 x94 +1 x101 +1 x108 +1 x115 +1 x122 +1 x129 +1 x136 +1 x143 +1 x150 +1 x157 +1 x164 +1 x171 +1 x178 +1 x185 +1 x192 +1 x209 +1 x216 +1 x223 +1 x230 +1 x237 +1 x244 +1 x251 +1 x258 +1 x265 +1 x272 +1 x279 +1 x286 +1 x293 +1 x300 +1 x307 +1 x314 +1 x321 +1 x345 +1 x352 +1 x359 +1 x366 +1 x373 +1 x380 +1 x387 +1 x394 >= 1 ;
-1 x7 -1 x14 -1 x21 -1 x28 -1 x35 -1 x42 -1 x49 -1 x56 -1 x80 -1 x87 -1 x94 -1 x101 -1 x108 -1 x115 -1 x122 -1 x129 -1 x136 -1 x143 -1 x150 -1 x157 -1 x164 -1 x171 -1 x178 -1 x185 -1 x192 -1 x209 -1 x216 -1 x223 -1 x230 -1 x237 -1 x244 -1 x251 -1 x258 -1 x265 -1 x272 -1 x279 -1 x286 -1 x293 -1 x300 -1 x307 -1 x314 -1 x321 -1 x345 -1 x352 -1 x359 -1 x366 -1 x373 -1 x380 -1 x387 -1 x394 -14 x515 >= -15 ;
+1 x7 +1 x14 +1 x24 +1 x31 +1 x38 +1 x45 +1 x52 +1 x69 +1 x76 +1 x83 +1 x90 +1 x97 +1 x107 +1 x114 +1 x121 +1 x128 +1 x135 +1 x145 +1 x152 +1 x159 +1 x166 +1 x173 +1 x183 +1 x190 +1 x197 +1 x204 +1 x211 +1 x218 +1 x228 +1 x235 +1 x242 +1 x249 +1 x256 +1 x266 +1 x273 +1 x280 +1 x287 +1 x294 +1 x304 +1 x311 +1 x318 +1 x325 +1 x332 +1 x349 +1 x356 +1 x363 +1 x370 +1 x377 +1 x387 +1 x394 >= 1 ;
-1 x7 -1 x14 -1 x24 -1 x31 -1 x38 -1 x45 -1 x52 -1 x69 -1 x76 -1 x83 -1 x90 -1 x97 -1 x107 -1 x114 -1 x121 -1 x128 -1 x135 -1 x145 -1 x152 -1 x159 -1 x166 -1 x173 -1 x183 -1 x190 -1 x197 -1 x204 -1 x211 -1 x218 -1 x228 -1 x235 -1 x242 -1 x249 -1 x256 -1 x266 -1 x273 -1 x280 -1 x287 -1 x294 -1 x304 -1 x311 -1 x318 -1 x325 -1 x332 -1 x349 -1 x356 -1 x363 -1 x370 -1 x377 -1 x387 -1 x394 -14 x516 >= -15 ;
+1 x7 +1 x17 +1 x24 +1 x31 +1 x41 +1 x48 +1 x55 +1 x65 +1 x72 +1 x79 +1 x89 +1 x96 +1 x103 +1 x113 +1 x120 +1 x127 +1 x137 +1 x144 +1 x151 +1 x161 +1 x168 +1 x175 +1 x185 +1 x192 +1 x199 +1 x202 +1 x209 +1 x216 +1 x226 +1 x233 +1 x240 +1 x250 +1 x257 +1 x264 +1 x274 +1 x281 +1 x288 +1 x298 +1 x305 +1 x312 +1 x322 +1 x329 +1 x336 +1 x346 +1 x353 +1 x360 +1 x370 +1 x377 +1 x384 +1 x394 >= 1 ;
-1 x7 -1 x17 -1 x24 -1 x31 -1 x41 -1 x48 -1 x55 -1 x65 -1 x72 -1 x79 -1 x89 -1 x96 -1 x103 -1 x113 -1 x120 -1 x127 -1 x137 -1 x144 -1 x151 -1 x161 -1 x168 -1 x175 -1 x185 -1 x192 -1 x199 -1 x202 -1 x209 -1 x216 -1 x226 -1 x233 -1 x240 -1 x250 -1 x257 -1 x264 -1 x274 -1 x281 -1 x288 -1 x298 -1 x305 -1 x312 -1 x322 -1 x329 -1 x336 -1 x346 -1 x353 -1 x360 -1 x370 -1 x377 -1 x384 -1 x394 -14 x517 >= -15 ;
+1 x7 +1 x10 +1 x17 +1 x24 +1 x27 +1 x34 +1 x44 +1 x51 +1 x61 +1 x68 +1 x78 +1 x85 +1 x95 +1 x102 +1 x112 +1 x119 +1 x129 +1 x136 +1 x146 +1 x153 +1 x163 +1 x170 +1 x180 +1 x187 +1 x197 +1 x204 +1 x214 +1 x221 +1 x231 +1 x238 +1 x248 +1 x255 +1 x265 +1 x272 +1 x282 +1 x289 +1 x299 +1 x306 +1 x316 +1 x323 +1 x333 +1 x340 +1 x350 +1 x357 +1 x367 +1 x374 +1 x377 +1 x384 +1 x391 +1 x394 >= 1 ;
-1 x7 -1 x10 -1 x17 -1 x24 -1 x27 -1 x34 -1 x44 -1 x51 -1 x61 -1 x68 -1 x78 -1 x85 -1 x95 -1 x102 -1 x112 -1 x119 -1 x129 -1 x136 -1 x146 -1 x153 -1 x163 -1 x170 -1 x180 -1 x187 -1 x197 -1 x204 -1 x214 -1 x221 -1 x231 -1 x238 -1 x248 -1 x255 -1 x265 -1 x272 -1 x282 -1 x289 -1 x299 -1 x306 -1 x316 -1 x323 -1 x333 -1 x340 -1 x350 -1 x357 -1 x367 -1 x374 -1 x377 -1 x384 -1 x391 -1 x394 -14 x518 >= -15 ;
+1 x10 +1 x17 +1 x27 +1 x37 +1 x44 +1 x47 +1 x54 +1 x64 +1 x74 +1 x81 +1 x91 +1 x101 +1 x108 +1 x111 +1 x118 +1 x128 +1 x135 +1 x138 +1 x145 +1 x155 +1 x165 +1 x172 +1 x182 +1 x192 +1 x199 +1 x202 +1 x209 +1 x219 +1 x229 +1 x236 +1 x246 +1 x256 +1 x263 +1 x266 +1 x273 +1 x283 +1 x290 +1 x293 +1 x300 +1 x310 +1 x320 +1 x327 +1 x337 +1 x347 +1 x354 +1 x357 +1 x364 +1 x374 +1 x384 +1 x391 >= 1 ;
-1 x10 -1 x17 -1 x27 -1 x37 -1 x44 -1 x47 -1 x54 -1 x64 -1 x74 -1 x81 -1 x91 -1 x101 -1 x108 -1 x111 -1 x118 -1 x128 -1 x135 -1 x138 -1 x145 -1 x155 -1 x165 -1 x172 -1 x182 -1 x192 -1 x199 -1 x202 -1 x209 -1 x219 -1 x229 -1 x236 -1 x246 -1 x256 -1 x263 -1 x266 -1 x273 -1 x283 -1 x290 -1 x293 -1 x300 -1 x310 -1 x320 -1 x327 -1 x337 -1 x347 -1 x354 -1 x357 -1 x364 -1 x374 -1 x384 -1 x391 -14 x519 >= -15 ;
+1 x10 +1 x20 +1 x30 +1 x40 +1 x50 +1 x57 +1 x60 +1 x67 +1 x70 +1 x77 +1 x80 +1 x87 +1 x97 +1 x107 +1 x117 +1 x127 +1 x137 +1 x147 +1 x157 +1 x167 +1 x177 +1 x184 +1 x187 +1 x194 +1 x197 +1 x204 +1 x207 +1 x214 +1 x217 +1 x224 +1 x234 +1 x244 +1 x254 +1 x264 +1 x274 +1 x284 +1 x294 +1 x304 +1 x314 +1 x321 +1 x324 +1 x331 +1 x334 +1 x341 +1 x344 +1 x351 +1 x361 +1 x371 +1 x381 +1 x391 >= 1 ;
-1 x10 -1 x20 -1 x30 -1 x40 -1 x50 -1 x57 -1 x60 -1 x67 -1 x70 -1 x77 -1 x80 -1 x87 -1 x97 -1 x107 -1 x117 -1 x127 -1 x137 -1 x147 -1 x157 -1 x167 -1 x177 -1 x184 -1 x187 -1 x194 -1 x197 -1 x204 -1 x207 -1 x214 -1 x217 -1 x224 -1 x234 -1 x244 -1 x254 -1 x264 -1 x274 -1 x284 -1 x294 -1 x304 -1 x314 -1 x321 -1 x324 -1 x331 -1 x334 -1 x341 -1 x344 -1 x351 -1 x361 -1 x371 -1 x381 -1 x391 -14 x520 >= -15 ;
+1 x10 +1 x20 +1 x23 +1 x30 +1 x33 +1 x43 +1 x53 +1 x63 +1 x73 +1 x83 +1 x86 +1 x93 +1 x96 +1 x106 +1 x116 +1 x126 +1 x136 +1 x139 +1 x146 +1 x149 +1 x159 +1 x169 +1 x179 +1 x189 +1 x199 +1 x202 +1 x212 +1 x222 +1 x232 +1 x242 +1 x252 +1 x255 +1 x262 +1 x265 +1 x275 +1 x285 +1 x295 +1 x305 +1 x308 +1 x315 +1 x318 +1 x328 +1 x338 +1 x348 +1 x358 +1 x368 +1 x371 +1 x378 +1 x381 +1 x391 >= 1 ;
-1 x10 -1 x20 -1 x23 -1 x30 -1 x33 -1 x43 -1 x53 -1 x63 -1 x73 -1 x83 -1 x86 -1 x93 -1 x96 -1 x106 -1 x116 -1 x126 -1 x136 -1 x139 -1 x146 -1 x149 -1 x159 -1 x169 -1 x179 -1 x189 -1 x199 -1 x202 -1 x212 -1 x222 -1 x232 -1 x242 -1 x252 -1 x255 -1 x262 -1 x265 -1 x275 -1 x285 -1 x295 -1 x305 -1 x308 -1 x315 -1 x318 -1 x328 -1 x338 -1 x348 -1 x358 -1 x368 -1 x371 -1 x378 -1 x381 -1 x391 -14 x521 >= -15 ;
+1 x10 +1 x13 +1 x23 +1 x33 +1 x36 +1 x46 +1 x56 +1 x59 +1 x69 +1 x79 +1 x82 +1 x92 +1 x102 +1 x105 +1 x115 +1 x125 +1 x128 +1 x138 +1 x148 +1 x151 +1 x161 +1 x171 +1 x174 +1 x184 +1 x194 +1 x207 +1 x217 +1 x227 +1 x230 +1 x240 +1 x250 +1 x253 +1 x263 +1 x273 +1 x276 +1 x286 +1 x296 +1 x299 +1 x309 +1 x319 +1 x322 +1 x332 +1 x342 +1 x345 +1 x355 +1 x365 +1 x368 +1 x378 +1 x388 +1 x391 >= 1 ;
-1 x10 -1 x13 -1 x23 -1 x33 -1 x36 -1 x46 -1 x56 -1 x59 -1 x69 -1 x79 -1 x82 -1 x92 -1 x102 -1 x105 -1 x115 -1 x125 -1 x128 -1 x138 -1 x148 -1 x151 -1 x161 -1 x171 -1 x174 -1 x184 -1 x194 -1 x207 -1 x217 -1 x227 -1 x230 -1 x240 -1 x250 -1 x253 -1 x263 -1 x273 -1 x276 -1 x286 -1 x296 -1 x299 -1 x309 -1 x319 -1 x322 -1 x332 -1 x342 -1 x345 -1 x355 -1 x365 -1 x368 -1 x378 -1 x388 -1 x391 -14 x522 >= -15 ;
+1 x13 +1 x23 +1 x26 +1 x36 +1 x39 +1 x49 +1 x52 +1 x62 +1 x65 +1 x75 +1 x88 +1 x98 +1 x101 +1 x111 +1 x114 +1 x124 +1 x127 +1 x137 +1 x140 +1 x150 +1 x163 +1 x176 +1 x186 +1 x189 +1 x199 +1 x202 +1 x212 +1 x215 +1 x225 +1 x238 +1 x251 +1 x261 +1 x264 +1 x274 +1 x277 +1 x287 +1 x290 +1 x300 +1 x303 +1 x313 +1 x326 +1 x336 +1 x339 +1 x349 +1 x352 +1 x362 +1 x365 +1 x375 +1 x378 +1 x388 >= 1 ;
-1 x13 -1 x23 -1 x26 -1 x36 -1 x39 -1 x49 -1 x52 -1 x62 -1 x65 -1 x75 -1 x88 -1 x98 -1 x101 -1 x111 -1 x114 -1 x124 -1 x127 -1 x137 -1 x140 -1 x150 -1 x163 -1 x176 -1 x186 -1 x189 -1 x199 -1 x202 -1 x212 -1 x215 -1 x225 -1 x238 -1 x251 -1 x261 -1 x264 -1 x274 -1 x277 -1 x287 -1 x290 -1 x300 -1 x303 -1 x313 -1 x326 -1 x336 -1 x339 -1 x349 -1 x352 -1 x362 -1 x365 -1 x375 -1 x378 -1 x388 -14 x523 >= -15 ;
+1 x13 +1 x16 +1 x26 +1 x29 +1 x39 +1 x42 +1 x55 +1 x68 +1 x71 +1 x81 +1 x84 +1 x97 +1 x110 +1 x113 +1 x123 +1 x126 +1 x136 +1 x139 +1 x152 +1 x165 +1 x168 +1 x178 +1 x181 +1 x191 +1 x194 +1 x207 +1 x210 +1 x220 +1 x223 +1 x233 +1 x236 +1 x249 +1 x262 +1 x265 +1 x275 +1 x278 +1 x288 +1 x291 +1 x304 +1 x317 +1 x320 +1 x330 +1 x333 +1 x346 +1 x359 +1 x362 +1 x372 +1 x375 +1 x385 +1 x388 >= 1 ;
-1 x13 -1 x16 -1 x26 -1 x29 -1 x39 -1 x42 -1 x55 -1 x68 -1 x71 -1 x81 -1 x84 -1 x97 -1 x110 -1 x113 -1 x123 -1 x126 -1 x136 -1 x139 -1 x152 -1 x165 -1 x168 -1 x178 -1 x181 -1 x191 -1 x194 -1 x207 -1 x210 -1 x220 -1 x223 -1 x233 -1 x236 -1 x249 -1 x262 -1 x265 -1 x275 -1 x278 -1 x288 -1 x291 -1 x304 -1 x317 -1 x320 -1 x330 -1 x333 -1 x346 -1 x359 -1 x362 -1 x372 -1 x375 -1 x385 -1 x388 -14 x524 >= -15 ;
+1 x13 +1 x16 +1 x29 +1 x32 +1 x45 +1 x48 +1 x61 +1 x64 +1 x77 +1 x80 +1 x90 +1 x93 +1 x106 +1 x109 +1 x122 +1 x125 +1 x138 +1 x141 +1 x154 +1 x157 +1 x167 +1 x170 +1 x183 +1 x186 +1 x199 +1 x202 +1 x215 +1 x218 +1 x231 +1 x234 +1 x244 +1 x247 +1 x260 +1 x263 +1 x276 +1 x279 +1 x292 +1 x295 +1 x308 +1 x311 +1 x321 +1 x324 +1 x337 +1 x340 +1 x353 +1 x356 +1 x369 +1 x372 +1 x385 +1 x388 >= 1 ;
-1 x13 -1 x16 -1 x29 -1 x32 -1 x45 -1 x48 -1 x61 -1 x64 -1 x77 -1 x80 -1 x90 -1 x93 -1 x106 -1 x109 -1 x122 -1 x125 -1 x138 -1 x141 -1 x154 -1 x157 -1 x167 -1 x170 -1 x183 -1 x186 -1 x199 -1 x202 -1 x215 -1 x218 -1 x231 -1 x234 -1 x244 -1 x247 -1 x260 -1 x263 -1 x276 -1 x279 -1 x292 -1 x295 -1 x308 -1 x311 -1 x321 -1 x324 -1 x337 -1 x340 -1 x353 -1 x356 -1 x369 -1 x372 -1 x385 -1 x388 -14 x525 >= -15 ;
+1 x3 +1 x16 +1 x19 +1 x32 +1 x35 +1 x38 +1 x51 +1 x54 +1 x67 +1 x70 +1 x73 +1 x86 +1 x89 +1 x102 +1 x105 +1 x121 +1 x124 +1 x137 +1 x140 +1 x156 +1 x159 +1 x172 +1 x175 +1 x191 +1 x194 +1 x207 +1 x210 +1 x226 +1 x229 +1 x242 +1 x245 +1 x261 +1 x264 +1 x277 +1 x280 +1 x296 +1 x299 +1 x312 +1 x315 +1 x328 +1 x331 +1 x334 +1 x347 +1 x350 +1 x363 +1 x366 +1 x369 +1 x382 +1 x385 +1 x398 >= 1 ;
-1 x3 -1 x16 -1 x19 -1 x32 -1 x35 -1 x38 -1 x51 -1 x54 -1 x67 -1 x70 -1 x73 -1 x86 -1 x89 -1 x102 -1 x105 -1 x121 -1 x124 -1 x137 -1 x140 -1 x156 -1 x159 -1 x172 -1 x175 -1 x191 -1 x194 -1 x207 -1 x210 -1 x226 -1 x229 -1 x242 -1 x245 -1 x261 -1 x264 -1 x277 -1 x280 -1 x296 -1 x299 -1 x312 -1 x315 -1 x328 -1 x331 -1 x334 -1 x347 -1 x350 -1 x363 -1 x366 -1 x369 -1 x382 -1 x385 -1 x398 -14 x526 >= -15 ;
+1 x3 +1 x19 +1 x22 +1 x38 +1 x41 +1 x57 +1 x60 +1 x63 +1 x79 +1 x82 +1 x98 +1 x101 +1 x104 +1 x117 +1 x120 +1 x123 +1 x139 +1 x142 +1 x158 +1 x161 +1 x164 +1 x177 +1 x180 +1 x183 +1 x199 +1 x202 +1 x218 +1 x221 +1 x224 +1 x237 +1 x240 +1 x243 +1 x259 +1 x262 +1 x278 +1 x281 +1 x284 +1 x297 +1 x300 +1 x303 +1 x319 +1 x322 +1 x338 +1 x341 +1 x344 +1 x360 +1 x363 +1 x379 +1 x382 +1 x398 >= 1 ;
-1 x3 -1 x19 -1 x22 -1 x38 -1 x41 -1 x57 -1 x60 -1 x63 -1 x79 -1 x82 -1 x98 -1 x101 -1 x104 -1 x117 -1 x120 -1 x123 -1 x139 -1 x142 -1 x158 -1 x161 -1 x164 -1 x177 -1 x180 -1 x183 -1 x199 -1 x202 -1 x218 -1 x221 -1 x224 -1 x237 -1 x240 -1 x243 -1 x259 -1 x262 -1 x278 -1 x281 -1 x284 -1 x297 -1 x300 -1 x303 -1 x319 -1 x322 -1 x338 -1 x341 -1 x344 -1 x360 -1 x363 -1 x379 -1 x382 -1 x398 -14 x527 >= -15 ;
+1 x3 +1 x22 +1 x25 +1 x28 +1 x44 +1 x47 +1 x50 +1 x69 +1 x72 +1 x75 +1 x91 +1 x94 +1 x97 +1 x116 +1 x119 +1 x122 +1 x138 +1 x141 +1 x144 +1 x163 +1 x166 +1 x169 +1 x185 +1 x188 +1 x191 +1 x210 +1 x213 +1 x216 +1 x232 +1 x235 +1 x238 +1 x257 +1 x260 +1 x263 +1 x279 +1 x282 +1 x285 +1 x304 +1 x307 +1 x310 +1 x326 +1 x329 +1 x332 +1 x351 +1 x354 +1 x357 +1 x373 +1 x376 +1 x379 +1 x398 >= 1 ;
-1 x3 -1 x22 -1 x25 -1 x28 -1 x44 -1 x47 -1 x50 -1 x69 -1 x72 -1 x75 -1 x91 -1 x94 -1 x97 -1 x116 -1 x119 -1 x122 -1 x138 -1 x141 -1 x144 -1 x163 -1 x166 -1 x169 -1 x185 -1 x188 -1 x191 -1 x210 -1 x213 -1 x216 -1 x232 -1 x235 -1 x238 -1 x257 -1 x260 -1 x263 -1 x279 -1 x282 -1 x285 -1 x304 -1 x307 -1 x310 -1 x326 -1 x329 -1 x332 -1 x351 -1 x354 -1 x357 -1 x373 -1 x376 -1 x379 -1 x398 -14 x528 >= -15 ;
+1 x3 +1 x25 +1 x28 +1 x31 +1 x34 +1 x53 +1 x56 +1 x59 +1 x62 +1 x81 +1 x84 +1 x87 +1 x90 +1 x112 +1 x115 +1 x118 +1 x140 +1 x143 +1 x146 +1 x168 +1 x171 +1 x174 +1 x177 +1 x196 +1 x199 +1 x202 +1 x205 +1 x224 +1 x227 +1 x230 +1 x233 +1 x255 +1 x258 +1 x261 +1 x283 +1 x286 +1 x289 +1 x311 +1 x314 +1 x317 +1 x320 +1 x339 +1 x342 +1 x345 +1 x348 +1 x367 +1 x370 +1 x373 +1 x376 +1 x398 >= 1 ;
-1 x3 -1 x25 -1 x28 -1 x31 -1 x34 -1 x53 -1 x56 -1 x59 -1 x62 -1 x81 -1 x84 -1 x87 -1 x90 -1 x112 -1 x115 -1 x118 -1 x140 -1 x143 -1 x146 -1 x168 -1 x171 -1 x174 -1 x177 -1 x196 -1 x199 -1 x202 -1 x205 -1 x224 -1 x227 -1 x230 -1 x233 -1 x255 -1 x258 -1 x261 -1 x283 -1 x286 -1 x289 -1 x311 -1 x314 -1 x317 -1 x320 -1 x339 -1 x342 -1 x345 -1 x348 -1 x367 -1 x370 -1 x373 -1 x376 -1 x398 -14 x529 >= -15 ;
+1 x3 +1 x6 +1 x31 +1 x34 +1 x37 +1 x40 +1 x43 +1 x68 +1 x71 +1 x74 +1 x77 +1 x105 +1 x108 +1 x111 +1 x114 +1 x139 +1 x142 +1 x145 +1 x148 +1 x151 +1 x176 +1 x179 +1 x182 +1 x185 +1 x188 +1 x213 +1 x216 +1 x219 +1 x222 +1 x225 +1 x250 +1 x253 +1 x256 +1 x259 +1 x262 +1 x287 +1 x290 +1 x293 +1 x296 +1 x324 +1 x327 +1 x330 +1 x333 +1 x358 +1 x361 +1 x364 +1 x367 +1 x370 +1 x395 +1 x398 >= 1 ;
-1 x3 -1 x6 -1 x31 -1 x34 -1 x37 -1 x40 -1 x43 -1 x68 -1 x71 -1 x74 -1 x77 -1 x105 -1 x108 -1 x111 -1 x114 -1 x139 -1 x142 -1 x145 -1 x148 -1 x151 -1 x176 -1 x179 -1 x182 -1 x185 -1 x188 -1 x213 -1 x216 -1 x219 -1 x222 -1 x225 -1 x250 -1 x253 -1 x256 -1 x259 -1 x262 -1 x287 -1 x290 -1 x293 -1 x296 -1 x324 -1 x327 -1 x330 -1 x333 -1 x358 -1 x361 -1 x364 -1 x367 -1 x370 -1 x395 -1 x398 -14 x530 >= -15 ;
+1 x3 +1 x6 +1 x9 +1 x43 +1 x46 +1 x49 +1 x52 +1 x55 +1 x58 +1 x92 +1 x95 +1 x98 +1 x101 +1 x104 +1 x107 +1 x141 +1 x144 +1 x147 +1 x150 +1 x153 +1 x156 +1 x159 +1 x193 +1 x196 +1 x199 +1 x202 +1 x205 +1 x208 +1 x242 +1 x245 +1 x248 +1 x251 +1 x254 +1 x257 +1 x260 +1 x294 +1 x297 +1 x300 +1 x303 +1 x306 +1 x309 +1 x343 +1 x346 +1 x349 +1 x352 +1 x355 +1 x358 +1 x392 +1 x395 +1 x398 >= 1 ;
-1 x3 -1 x6 -1 x9 -1 x43 -1 x46 -1 x49 -1 x52 -1 x55 -1 x58 -1 x92 -1 x95 -1 x98 -1 x101 -1 x104 -1 x107 -1 x141 -1 x144 -1 x147 -1 x150 -1 x153 -1 x156 -1 x159 -1 x193 -1 x196 -1 x199 -1 x202 -1 x205 -1 x208 -1 x242 -1 x245 -1 x248 -1 x251 -1 x254 -1 x257 -1 x260 -1 x294 -1 x297 -1 x300 -1 x303 -1 x306 -1 x309 -1 x343 -1 x346 -1 x349 -1 x352 -1 x355 -1 x358 -1 x392 -1 x395 -1 x398 -14 x531 >= -15 ;
+1 x3 +1 x6 +1 x9 +1 x12 +1 x15 +1 x67 +1 x70 +1 x73 +1 x76 +1 x79 +1 x82 +1 x85 +1 x88 +1 x91 +1 x94 +1 x146 +1 x149 +1 x152 +1 x155 +1 x158 +1 x161 +1 x164 +1 x167 +1 x170 +1 x173 +1 x228 +1 x231 +1 x234 +1 x237 +1 x240 +1 x243 +1 x246 +1 x249 +1 x252 +1 x255 +1 x307 +1 x310 +1 x313 +1 x316 +1 x319 +1 x322 +1 x325 +1 x328 +1 x331 +1 x334 +1 x386 +1 x389 +1 x392 +1 x395 +1 x398 >= 1 ;
-1 x3 -1 x6 -1 x9 -1 x12 -1 x15 -1 x67 -1 x70 -1 x73 -1 x76 -1 x79 -1 x82 -1 x85 -1 x88 -1 x91 -1 x94 -1 x146 -1 x149 -1 x152 -1 x155 -1 x158 -1 x161 -1 x164 -1 x167 -1 x170 -1 x173 -1 x228 -1 x231 -1 x234 -1 x237 -1 x240 -1 x243 -1 x246 -1 x249 -1 x252 -1 x255 -1 x307 -1 x310 -1 x313 -1 x316 -1 x319 -1 x322 -1 x325 -1 x328 -1 x331 -1 x334 -1 x386 -1 x389 -1 x392 -1 x395 -1 x398 -14 x532 >= -15 ;
+1 x3 +1 x6 +1 x9 +1 x12 +1 x15 +1 x18 +1 x21 +1 x24 +1 x27 +1 x30 +1 x33 +1 x36 +1 x163 +1 x166 +1 x169 +1 x172 +1 x175 +1 x178 +1 x181 +1 x184 +1 x187 +1 x190 +1 x193 +1 x196 +1 x199 +1 x202 +1 x205 +1 x208 +1 x211 +1 x214 +1 x217 +1 x220 +1 x223 +1 x226 +1 x229 +1 x232 +1 x235 +1 x238 +1 x365 +1 x368 +1 x371 +1 x374 +1 x377 +1 x380 +1 x383 +1 x386 +1 x389 +1 x392 +1 x395 +1 x398 >= 1 ;
-1 x3 -1 x6 -1 x9 -1 x12 -1 x15 -1 x18 -1 x21 -1 x24 -1 x27 -1 x30 -1 x33 -1 x36 -1 x163 -1 x166 -1 x169 -1 x172 -1 x175 -1 x178 -1 x181 -1 x184 -1 x187 -1 x190 -1 x193 -1 x196 -1 x199 -1 x202 -1 x205 -1 x208 -1 x211 -1 x214 -1 x217 -1 x220 -1 x223 -1 x226 -1 x229 -1 x232 -1 x235 -1 x238 -1 x365 -1 x368 -1 x371 -1 x374 -1 x377 -1 x380 -1 x383 -1 x386 -1 x389 -1 x392 -1 x395 -1 x398 -14 x533 >= -15 ;
+1 x3 +1 x6 +1 x9 +1 x12 +1 x15 +1 x18 +1 x21 +1 x24 +1 x27 +1 x30 +1 x33 +1 x36 +1 x39 +1 x42 +1 x45 +1 x48 +1 x51 +1 x54 +1 x57 +1 x60 +1 x63 +1 x66 +1 x69 +1 x72 +1 x75 +1 x326 +1 x329 +1 x332 +1 x335 +1 x338 +1 x341 +1 x344 +1 x347 +1 x350 +1 x353 +1 x356 +1 x359 +1 x362 +1 x365 +1 x368 +1 x371 +1 x374 +1 x377 +1 x380 +1 x383 +1 x386 +1 x389 +1 x392 +1 x395 +1 x398 >= 1 ;
-1 x3 -1 x6 -1 x9 -1 x12 -1 x15 -1 x18 -1 x21 -1 x24 -1 x27 -1 x30 -1 x33 -1 x36 -1 x39 -1 x42 -1 x45 -1 x48 -1 x51 -1 x54 -1 x57 -1 x60 -1 x63 -1 x66 -1 x69 -1 x72 -1 x75 -1 x326 -1 x329 -1 x332 -1 x335 -1 x338 -1 x341 -1 x344 -1 x347 -1 x350 -1 x353 -1 x356 -1 x359 -1 x362 -1 x365 -1 x368 -1 x371 -1 x374 -1 x377 -1 x380 -1 x383 -1 x386 -1 x389 -1 x392 -1 x395 -1 x398 -14 x534 >= -15 ;
+1 x3 +1 x6 +1 x9 +1 x12 +1 x15 +1 x18 +1 x83 +1 x86 +1 x89 +1 x92 +1 x95 +1 x98 +1 x101 +1 x104 +1 x107 +1 x110 +1 x113 +1 x116 +1 x119 +1 x184 +1 x187 +1 x190 +1 x193 +1 x196 +1 x199 +1 x202 +1 x205 +1 x208 +1 x211 +1 x214 +1 x217 +1 x282 +1 x285 +1 x288 +1 x291 +1 x294 +1 x297 +1 x300 +1 x303 +1 x306 +1 x309 +1 x312 +1 x315 +1 x318 +1 x383 +1 x386 +1 x389 +1 x392 +1 x395 +1 x398 >= 1 ;
-1 x3 -1 x6 -1 x9 -1 x12 -1 x15 -1 x18 -1 x83 -1 x86 -1 x89 -1 x92 -1 x95 -1 x98 -1 x101 -1 x104 -1 x107 -1 x110 -1 x113 -1 x116 -1 x119 -1 x184 -1 x187 -1 x190 -1 x193 -1 x196 -1 x199 -1 x202 -1 x205 -1 x208 -1 x211 -1 x214 -1 x217 -1 x282 -1 x285 -1 x288 -1 x291 -1 x294 -1 x297 -1 x300 -1 x303 -1 x306 -1 x309 -1 x312 -1 x315 -1 x318 -1 x383 -1 x386 -1 x389 -1 x392 -1 x395 -1 x398 -14 x535 >= -15 ;
+1 x3 +1 x6 +1 x9 +1 x47 +1 x50 +1 x53 +1 x56 +1 x59 +1 x62 +1 x65 +1 x68 +1 x106 +1 x109 +1 x112 +1 x115 +1 x118 +1 x121 +1 x124 +1 x162 +1 x165 +1 x168 +1 x171 +1 x174 +1 x177 +1 x180 +1 x221 +1 x224 +1 x227 +1 x230 +1 x233 +1 x236 +1 x239 +1 x277 +1 x280 +1 x283 +1 x286 +1 x289 +1 x292 +1 x295 +1 x333 +1 x336 +1 x339 +1 x342 +1 x345 +1 x348 +1 x351 +1 x354 +1 x392 +1 x395 +1 x398 >= 1 ;
-1 x3 -1 x6 -1 x9 -1 x47 -1 x50 -1 x53 -1 x56 -1 x59 -1 x62 -1 x65 -1 x68 -1 x106 -1 x109 -1 x112 -1 x115 -1 x118 -1 x121 -1 x124 -1 x162 -1 x165 -1 x168 -1 x171 -1 x174 -1 x177 -1 x180 -1 x221 -1 x224 -1 x227 -1 x230 -1 x233 -1 x236 -1 x239 -1 x277 -1 x280 -1 x283 -1 x286 -1 x289 -1 x292 -1 x295 -1 x333 -1 x336 -1 x339 -1 x342 -1 x345 -1 x348 -1 x351 -1 x354 -1 x392 -1 x395 -1 x398 -14 x536 >= -15 ;
+1 x3 +1 x6 +1 x35 +1 x38 +1 x41 +1 x44 +1 x47 +1 x73 +1 x76 +1 x79 +1 x82 +1 x85 +1 x114 +1 x117 +1 x120 +1 x123 +1 x126 +1 x155 +1 x158 +1 x161 +1 x164 +1 x167 +1 x193 +1 x196 +1 x199 +1 x202 +1 x205 +1 x208 +1 x234 +1 x237 +1 x240 +1 x243 +1 x246 +1 x275 +1 x278 +1 x281 +1 x284 +1 x287 +1 x316 +1 x319 +1 x322 +1 x325 +1 x328 +1 x354 +1 x357 +1 x360 +1 x363 +1 x366 +1 x395 +1 x398 >= 1 ;
-1 x3 -1 x6 -1 x35 -1 x38 -1 x41 -1 x44 -1 x47 -1 x73 -1 x76 -1 x79 -1 x82 -1 x85 -1 x114 -1 x117 -1 x120 -1 x123 -1 x126 -1 x155 -1 x158 -1 x161 -1 x164 -1 x167 -1 x193 -1 x196 -1 x199 -1 x202 -1 x205 -1 x208 -1 x234 -1 x237 -1 x240 -1 x243 -1 x246 -1 x275 -1 x278 -1 x281 -1 x284 -1 x287 -1 x316 -1 x319 -1 x322 -1 x325 -1 x328 -1 x354 -1 x357 -1 x360 -1 x363 -1 x366 -1 x395 -1 x398 -14 x537 >= -15 ;
+1 x3 +1 x26 +1 x29 +1 x32 +1 x35 +1 x58 +1 x61 +1 x64 +1 x67 +1 x87 +1 x90 +1 x93 +1 x96 +1 x119 +1 x122 +1 x125 +1 x128 +1 x151 +1 x154 +1 x157 +1 x160 +1 x180 +1 x183 +1 x186 +1 x189 +1 x212 +1 x215 +1 x218 +1 x221 +1 x241 +1 x244 +1 x247 +1 x250 +1 x273 +1 x276 +1 x279 +1 x282 +1 x305 +1 x308 +1 x311 +1 x314 +1 x334 +1 x337 +1 x340 +1 x343 +1 x366 +1 x369 +1 x372 +1 x375 +1 x398 >= 1 ;
-1 x3 -1 x26 -1 x29 -1 x32 -1 x35 -1 x58 -1 x61 -1 x64 -1 x67 -1 x87 -1 x90 -1 x93 -1 x96 -1 x119 -1 x122 -1 x125 -1 x128 -1 x151 -1 x154 -1 x157 -1 x160 -1 x180 -1 x183 -1 x186 -1 x189 -1 x212 -1 x215 -1 x218 -1 x221 -1 x241 -1 x244 -1 x247 -1 x250 -1 x273 -1 x276 -1 x279 -1 x282 -1 x305 -1 x308 -1 x311 -1 x314 -1 x334 -1 x337 -1 x340 -1 x343 -1 x366 -1 x369 -1 x372 -1 x375 -1 x398 -14 x538 >= -15 ;
+1 x3 +1 x23 +1 x26 +1 x29 +1 x46 +1 x49 +1 x52 +1 x72 +1 x75 +1 x78 +1 x98 +1 x101 +1 x104 +1 x121 +1 x124 +1 x127 +1 x130 +1 x147 +1 x150 +1 x153 +1 x173 +1 x176 +1 x179 +1 x196 +1 x199 +1 x202 +1 x205 +1 x222 +1 x225 +1 x228 +1 x248 +1 x251 +1 x254 +1 x271 +1 x274 +1 x277 +1 x280 +1 x297 +1 x300 +1 x303 +1 x323 +1 x326 +1 x329 +1 x349 +1 x352 +1 x355 +1 x372 +1 x375 +1 x378 +1 x398 >= 1 ;
-1 x3 -1 x23 -1 x26 -1 x29 -1 x46 -1 x49 -1 x52 -1 x72 -1 x75 -1 x78 -1 x98 -1 x101 -1 x104 -1 x121 -1 x124 -1 x127 -1 x130 -1 x147 -1 x150 -1 x153 -1 x173 -1 x176 -1 x179 -1 x196 -1 x199 -1 x202 -1 x205 -1 x222 -1 x225 -1 x228 -1 x248 -1 x251 -1 x254 -1 x271 -1 x274 -1 x277 -1 x280 -1 x297 -1 x300 -1 x303 -1 x323 -1 x326 -1 x329 -1 x349 -1 x352 -1 x355 -1 x372 -1 x375 -1 x378 -1 x398 -14 x539 >= -15 ;
+1 x3 +1 x20 +1 x23 +1 x40 +1 x43 +1 x46 +1 x60 +1 x63 +1 x66 +1 x83 +1 x86 +1 x103 +1 x106 +1 x109 +1 x123 +1 x126 +1 x129 +1 x146 +1 x149 +1 x166 +1 x169 +1 x172 +1 x186 +1 x189 +1 x192 +1 x209 +1 x212 +1 x215 +1 x229 +1 x232 +1 x235 +1 x252 +1 x255 +1 x272 +1 x275 +1 x278 +1 x292 +1 x295 +1 x298 +1 x315 +1 x318 +1 x335 +1 x338 +1 x341 +1 x355 +1 x358 +1 x361 +1 x378 +1 x381 +1 x398 >= 1 ;
-1 x3 -1 x20 -1 x23 -1 x40 -1 x43 -1 x46 -1 x60 -1 x63 -1 x66 -1 x83 -1 x86 -1 x103 -1 x106 -1 x109 -1 x123 -1 x126 -1 x129 -1 x146 -1 x149 -1 x166 -1 x169 -1 x172 -1 x186 -1 x189 -1 x192 -1 x209 -1 x212 -1 x215 -1 x229 -1 x232 -1 x235 -1 x252 -1 x255 -1 x272 -1 x275 -1 x278 -1 x292 -1 x295 -1 x298 -1 x315 -1 x318 -1 x335 -1 x338 -1 x341 -1 x355 -1 x358 -1 x361 -1 x378 -1 x381 -1 x398 -14 x540 >= -15 ;
+1 x3 +1 x17 +1 x20 +1 x34 +1 x37 +1 x54 +1 x57 +1 x71 +1 x74 +1 x88 +1 x91 +1 x94 +1 x108 +1 x111 +1 x125 +1 x128 +1 x131 +1 x145 +1 x148 +1 x162 +1 x165 +1 x179 +1 x182 +1 x185 +1 x199 +1 x202 +1 x216 +1 x219 +1 x222 +1 x236 +1 x239 +1 x253 +1 x256 +1 x270 +1 x273 +1 x276 +1 x290 +1 x293 +1 x307 +1 x310 +1 x313 +1 x327 +1 x330 +1 x344 +1 x347 +1 x364 +1 x367 +1 x381 +1 x384 +1 x398 >= 1 ;
-1 x3 -1 x17 -1 x20 -1 x34 -1 x37 -1 x54 -1 x57 -1 x71 -1 x74 -1 x88 -1 x91 -1 x94 -1 x108 -1 x111 -1 x125 -1 x128 -1 x131 -1 x145 -1 x148 -1 x162 -1 x165 -1 x179 -1 x182 -1 x185 -1 x199 -1 x202 -1 x216 -1 x219 -1 x222 -1 x236 -1 x239 -1 x253 -1 x256 -1 x270 -1 x273 -1 x276 -1 x290 -1 x293 -1 x307 -1 x310 -1 x313 -1 x327 -1 x330 -1 x344 -1 x347 -1 x364 -1 x367 -1 x381 -1 x384 -1 x398 -14 x541 >= -15 ;
+1 x3 +1 x14 +1 x17 +1 x31 +1 x34 +1 x48 +1 x51 +1 x62 +1 x65 +1 x79 +1 x82 +1 x96 +1 x99 +1 x110 +1 x113 +1 x127 +1 x130 +1 x144 +1 x147 +1 x158 +1 x161 +1 x175 +1 x178 +1 x192 +1 x195 +1 x206 +1 x209 +1 x223 +1 x226 +1 x240 +1 x243 +1 x254 +1 x257 +1 x271 +1 x274 +1 x288 +1 x291 +1 x302 +1 x305 +1 x319 +1 x322 +1 x336 +1 x339 +1 x350 +1 x353 +1 x367 +1 x370 +1 x384 +1 x387 +1 x398 >= 1 ;
-1 x3 -1 x14 -1 x17 -1 x31 -1 x34 -1 x48 -1 x51 -1 x62 -1 x65 -1 x79 -1 x82 -1 x96 -1 x99 -1 x110 -1 x113 -1 x127 -1 x130 -1 x144 -1 x147 -1 x158 -1 x161 -1 x175 -1 x178 -1 x192 -1 x195 -1 x206 -1 x209 -1 x223 -1 x226 -1 x240 -1 x243 -1 x254 -1 x257 -1 x271 -1 x274 -1 x288 -1 x291 -1 x302 -1 x305 -1 x319 -1 x322 -1 x336 -1 x339 -1 x350 -1 x353 -1 x367 -1 x370 -1 x384 -1 x387 -1 x398 -14 x542 >= -15 ;
+1 x14 +1 x17 +1 x28 +1 x31 +1 x42 +1 x45 +1 x56 +1 x59 +1 x70 +1 x73 +1 x84 +1 x87 +1 x98 +1 x101 +1 x112 +1 x115 +1 x129 +1 x143 +1 x157 +1 x160 +1 x171 +1 x174 +1 x185 +1 x188 +1 x199 +1 x202 +1 x213 +1 x216 +1 x227 +1 x230 +1 x241 +1 x244 +1 x258 +1 x272 +1 x286 +1 x289 +1 x300 +1 x303 +1 x314 +1 x317 +1 x328 +1 x331 +1 x342 +1 x345 +1 x356 +1 x359 +1 x370 +1 x373 +1 x384 +1 x387 >= 1 ;
-1 x14 -1 x17 -1 x28 -1 x31 -1 x42 -1 x45 -1 x56 -1 x59 -1 x70 -1 x73 -1 x84 -1 x87 -1 x98 -1 x101 -1 x112 -1 x115 -1 x129 -1 x143 -1 x157 -1 x160 -1 x171 -1 x174 -1 x185 -1 x188 -1 x199 -1 x202 -1 x213 -1 x216 -1 x227 -1 x230 -1 x241 -1 x244 -1 x258 -1 x272 -1 x286 -1 x289 -1 x300 -1 x303 -1 x314 -1 x317 -1 x328 -1 x331 -1 x342 -1 x345 -1 x356 -1 x359 -1 x370 -1 x373 -1 x384 -1 x387 -14 x543 >= -15 ;
+1 x11 +1 x14 +1 x25 +1 x28 +1 x39 +1 x50 +1 x53 +1 x64 +1 x67 +1 x78 +1 x89 +1 x92 +1 x103 +1 x114 +1 x117 +1 x128 +1 x131 +1 x142 +1 x153 +1 x156 +1 x167 +1 x170 +1 x181 +1 x192 +1 x195 +1 x206 +1 x209 +1 x220 +1 x231 +1 x234 +1 x245 +1 x248 +1 x259 +1 x270 +1 x273 +1 x284 +1 x287 +1 x298 +1 x309 +1 x312 +1 x323 +1 x334 +1 x337 +1 x348 +1 x351 +1 x362 +1 x373 +1 x376 +1 x387 +1 x390 >= 1 ;
-1 x11 -1 x14 -1 x25 -1 x28 -1 x39 -1 x50 -1 x53 -1 x64 -1 x67 -1 x78 -1 x89 -1 x92 -1 x103 -1 x114 -1 x117 -1 x128 -1 x131 -1 x142 -1 x153 -1 x156 -1 x167 -1 x170 -1 x181 -1 x192 -1 x195 -1 x206 -1 x209 -1 x220 -1 x231 -1 x234 -1 x245 -1 x248 -1 x259 -1 x270 -1 x273 -1 x284 -1 x287 -1 x298 -1 x309 -1 x312 -1 x323 -1 x334 -1 x337 -1 x348 -1 x351 -1 x362 -1 x373 -1 x376 -1 x387 -1 x390 -14 x544 >= -15 ;
+1 x11 +1 x14 +1 x22 +1 x25 +1 x36 +1 x47 +1 x58 +1 x61 +1 x69 +1 x72 +1 x83 +1 x94 +1 x105 +1 x108 +1 x116 +1 x119 +1 x130 +1 x141 +1 x152 +1 x155 +1 x163 +1 x166 +1 x177 +1 x188 +1 x199 +1 x202 +1 x213 +1 x224 +1 x235 +1 x238 +1 x246 +1 x249 +1 x260 +1 x271 +1 x282 +1 x285 +1 x293 +1 x296 +1 x307 +1 x318 +1 x329 +1 x332 +1 x340 +1 x343 +1 x354 +1 x365 +1 x376 +1 x379 +1 x387 +1 x390 >= 1 ;
-1 x11 -1 x14 -1 x22 -1 x25 -1 x36 -1 x47 -1 x58 -1 x61 -1 x69 -1 x72 -1 x83 -1 x94 -1 x105 -1 x108 -1 x116 -1 x119 -1 x130 -1 x141 -1 x152 -1 x155 -1 x163 -1 x166 -1 x177 -1 x188 -1 x199 -1 x202 -1 x213 -1 x224 -1 x235 -1 x238 -1 x246 -1 x249 -1 x260 -1 x271 -1 x282 -1 x285 -1 x293 -1 x296 -1 x307 -1 x318 -1 x329 -1 x332 -1 x340 -1 x343 -1 x354 -1 x365 -1 x376 -1 x379 -1 x387 -1 x390 -14 x545 >= -15 ;
+1 x11 +1 x22 +1 x33 +1 x44 +1 x55 +1 x63 +1 x66 +1 x74 +1 x77 +1 x85 +1 x88 +1 x96 +1 x99 +1 x107 +1 x110 +1 x118 +1 x121 +1 x129 +1 x132 +1 x140 +1 x151 +1 x162 +1 x173 +1 x184 +1 x195 +1 x206 +1 x217 +1 x228 +1 x239 +1 x250 +1 x261 +1 x269 +1 x272 +1 x280 +1 x283 +1 x291 +1 x294 +1 x302 +1 x305 +1 x313 +1 x316 +1 x324 +1 x327 +1 x335 +1 x338 +1 x346 +1 x357 +1 x368 +1 x379 +1 x390 >= 1 ;
-1 x11 -1 x22 -1 x33 -1 x44 -1 x55 -1 x63 -1 x66 -1 x74 -1 x77 -1 x85 -1 x88 -1 x96 -1 x99 -1 x107 -1 x110 -1 x118 -1 x121 -1 x129 -1 x132 -1 x140 -1 x151 -1 x162 -1 x173 -1 x184 -1 x195 -1 x206 -1 x217 -1 x228 -1 x239 -1 x250 -1 x261 -1 x269 -1 x272 -1 x280 -1 x283 -1 x291 -1 x294 -1 x302 -1 x305 -1 x313 -1 x316 -1 x324 -1 x327 -1 x335 -1 x338 -1 x346 -1 x357 -1 x368 -1 x379 -1 x390 -14 x546 >= -15 ;
+1 x11 +1 x19 +1 x30 +1 x41 +1 x49 +1 x52 +1 x60 +1 x71 +1 x79 +1 x82 +1 x90 +1 x101 +1 x109 +1 x112 +1 x120 +1 x131 +1 x139 +1 x142 +1 x150 +1 x161 +1 x169 +1 x172 +1 x180 +1 x191 +1 x199 +1 x202 +1 x210 +1 x221 +1 x229 +1 x232 +1 x240 +1 x251 +1 x259 +1 x262 +1 x270 +1 x281 +1 x289 +1 x292 +1 x300 +1 x311 +1 x319 +1 x322 +1 x330 +1 x341 +1 x349 +1 x352 +1 x360 +1 x371 +1 x382 +1 x390 >= 1 ;
-1 x11 -1 x19 -1 x30 -1 x41 -1 x49 -1 x52 -1 x60 -1 x71 -1 x79 -1 x82 -1 x90 -1 x101 -1 x109 -1 x112 -1 x120 -1 x131 -1 x139 -1 x142 -1 x150 -1 x161 -1 x169 -1 x172 -1 x180 -1 x191 -1 x199 -1 x202 -1 x210 -1 x221 -1 x229 -1 x232 -1 x240 -1 x251 -1 x259 -1 x262 -1 x270 -1 x281 -1 x289 -1 x292 -1 x300 -1 x311 -1 x319 -1 x322 -1 x330 -1 x341 -1 x349 -1 x352 -1 x360 -1 x371 -1 x382 -1 x390 -14 x547 >= -15 ;
+1 x8 +1 x11 +1 x19 +1 x27 +1 x38 +1 x46 +1 x57 +1 x65 +1 x73 +1 x76 +1 x84 +1 x92 +1 x95 +1 x103 +1 x111 +1 x122 +1 x130 +1 x141 +1 x149 +1 x157 +1 x160 +1 x168 +1 x176 +1 x187 +1 x195 +1 x206 +1 x214 +1 x225 +1 x233 +1 x241 +1 x244 +1 x252 +1 x260 +1 x271 +1 x279 +1 x290 +1 x298 +1 x306 +1 x309 +1 x317 +1 x325 +1 x328 +1 x336 +1 x344 +1 x355 +1 x363 +1 x374 +1 x382 +1 x390 +1 x393 >= 1 ;
-1 x8 -1 x11 -1 x19 -1 x27 -1 x38 -1 x46 -1 x57 -1 x65 -1 x73 -1 x76 -1 x84 -1 x92 -1 x95 -1 x103 -1 x111 -1 x122 -1 x130 -1 x141 -1 x149 -1 x157 -1 x160 -1 x168 -1 x176 -1 x187 -1 x195 -1 x206 -1 x214 -1 x225 -1 x233 -1 x241 -1 x244 -1 x252 -1 x260 -1 x271 -1 x279 -1 x290 -1 x298 -1 x306 -1 x309 -1 x317 -1 x325 -1 x328 -1 x336 -1 x344 -1 x355 -1 x363 -1 x374 -1 x382 -1 x390 -1 x393 -14 x548 >= -15 ;
+1 x8 +1 x16 +1 x19 +1 x27 +1 x35 +1 x43 +1 x51 +1 x62 +1 x70 +1 x78 +1 x86 +1 x97 +1 x105 +1 x113 +1 x121 +1 x132 +1 x140 +1 x148 +1 x156 +1 x164 +1 x167 +1 x175 +1 x183 +1 x191 +1 x199 +1 x202 +1 x210 +1 x218 +1 x226 +1 x234 +1 x237 +1 x245 +1 x253 +1 x261 +1 x269 +1 x280 +1 x288 +1 x296 +1 x304 +1 x315 +1 x323 +1 x331 +1 x339 +1 x350 +1 x358 +1 x366 +1 x374 +1 x382 +1 x385 +1 x393 >= 1 ;
-1 x8 -1 x16 -1 x19 -1 x27 -1 x35 -1 x43 -1 x51 -1 x62 -1 x70 -1 x78 -1 x86 -1 x97 -1 x105 -1 x113 -1 x121 -1 x132 -1 x140 -1 x148 -1 x156 -1 x164 -1 x167 -1 x175 -1 x183 -1 x191 -1 x199 -1 x202 -1 x210 -1 x218 -1 x226 -1 x234 -1 x237 -1 x245 -1 x253 -1 x261 -1 x269 -1 x280 -1 x288 -1 x296 -1 x304 -1 x315 -1 x323 -1 x331 -1 x339 -1 x350 -1 x358 -1 x366 -1 x374 -1 x382 -1 x385 -1 x393 -14 x549 >= -15 ;
+1 x8 +1 x16 +1 x24 +1 x32 +1 x40 +1 x48 +1 x56 +1 x64 +1 x67 +1 x75 +1 x83 +1 x91 +1 x99 +1 x107 +1 x115 +1 x123 +1 x131 +1 x139 +1 x147 +1 x155 +1 x163 +1 x171 +1 x179 +1 x187 +1 x195 +1 x206 +1 x214 +1 x222 +1 x230 +1 x238 +1 x246 +1 x254 +1 x262 +1 x270 +1 x278 +1 x286 +1 x294 +1 x302 +1 x310 +1 x318 +1 x326 +1 x334 +1 x337 +1 x345 +1 x353 +1 x361 +1 x369 +1 x377 +1 x385 +1 x393 >= 1 ;
-1 x8 -1 x16 -1 x24 -1 x32 -1 x40 -1 x48 -1 x56 -1 x64 -1 x67 -1 x75 -1 x83 -1 x91 -1 x99 -1 x107 -1 x115 -1 x123 -1 x131 -1 x139 -1 x147 -1 x155 -1 x163 -1 x171 -1 x179 -1 x187 -1 x195 -1 x206 -1 x214 -1 x222 -1 x230 -1 x238 -1 x246 -1 x254 -1 x262 -1 x270 -1 x278 -1 x286 -1 x294 -1 x302 -1 x310 -1 x318 -1 x326 -1 x334 -1 x337 -1 x345 -1 x353 -1 x361 -1 x369 -1 x377 -1 x385 -1 x393 -14 x550 >= -15 ;
+1 x8 +1 x16 +1 x24 +1 x32 +1 x40 +1 x45 +1 x53 +1 x61 +1 x69 +1 x77 +1 x85 +1 x93 +1 x101 +1 x109 +1 x117 +1 x122 +1 x130 +1 x138 +1 x146 +1 x154 +1 x162 +1 x170 +1 x178 +1 x186 +1 x194 +1 x207 +1 x215 +1 x223 +1 x231 +1 x239 +1 x247 +1 x255 +1 x263 +1 x271 +1 x279 +1 x284 +1 x292 +1 x300 +1 x308 +1 x316 +1 x324 +1 x332 +1 x340 +1 x348 +1 x356 +1 x361 +1 x369 +1 x377 +1 x385 +1 x393 >= 1 ;
-1 x8 -1 x16 -1 x24 -1 x32 -1 x40 -1 x45 -1 x53 -1 x61 -1 x69 -1 x77 -1 x85 -1 x93 -1 x101 -1 x109 -1 x117 -1 x122 -1 x130 -1 x138 -1 x146 -1 x154 -1 x162 -1 x170 -1 x178 -1 x186 -1 x194 -1 x207 -1 x215 -1 x223 -1 x231 -1 x239 -1 x247 -1 x255 -1 x263 -1 x271 -1 x279 -1 x284 -1 x292 -1 x300 -1 x308 -1 x316 -1 x324 -1 x332 -1 x340 -1 x348 -1 x356 -1 x361 -1 x369 -1 x377 -1 x385 -1 x393 -14 x551 >= -15 ;
+1 x8 +1 x21 +1 x29 +1 x37 +1 x45 +1 x50 +1 x58 +1 x66 +1 x74 +1 x79 +1 x87 +1 x95 +1 x103 +1 x108 +1 x116 +1 x124 +1 x132 +1 x145 +1 x153 +1 x161 +1 x169 +1 x174 +1 x182 +1 x190 +1 x198 +1 x203 +1 x211 +1 x219 +1 x227 +1 x232 +1 x240 +1 x248 +1 x256 +1 x269 +1 x277 +1 x285 +1 x293 +1 x298 +1 x306 +1 x314 +1 x322 +1 x327 +1 x335 +1 x343 +1 x351 +1 x356 +1 x364 +1 x372 +1 x380 +1 x393 >= 1 ;
-1 x8 -1 x21 -1 x29 -1 x37 -1 x45 -1 x50 -1 x58 -1 x66 -1 x74 -1 x79 -1 x87 -1 x95 -1 x103 -1 x108 -1 x116 -1 x124 -1 x132 -1 x145 -1 x153 -1 x161 -1 x169 -1 x174 -1 x182 -1 x190 -1 x198 -1 x203 -1 x211 -1 x219 -1 x227 -1 x232 -1 x240 -1 x248 -1 x256 -1 x269 -1 x277 -1 x285 -1 x293 -1 x298 -1 x306 -1 x314 -1 x322 -1 x327 -1 x335 -1 x343 -1 x351 -1 x356 -1 x364 -1 x372 -1 x380 -1 x393 -14 x552 >= -15 ;
+1 x8 +1 x13 +1 x21 +1 x34 +1 x42 +1 x55 +1 x63 +1 x68 +1 x76 +1 x84 +1 x89 +1 x97 +1 x105 +1 x110 +1 x118 +1 x131 +1 x139 +1 x144 +1 x152 +1 x160 +1 x165 +1 x173 +1 x181 +1 x186 +1 x194 +1 x207 +1 x215 +1 x220 +1 x228 +1 x236 +1 x241 +1 x249 +1 x257 +1 x262 +1 x270 +1 x283 +1 x291 +1 x296 +1 x304 +1 x312 +1 x317 +1 x325 +1 x333 +1 x338 +1 x346 +1 x359 +1 x367 +1 x380 +1 x388 +1 x393 >= 1 ;
-1 x8 -1 x13 -1 x21 -1 x34 -1 x42 -1 x55 -1 x63 -1 x68 -1 x76 -1 x84 -1 x89 -1 x97 -1 x105 -1 x110 -1 x118 -1 x131 -1 x139 -1 x144 -1 x152 -1 x160 -1 x165 -1 x173 -1 x181 -1 x186 -1 x194 -1 x207 -1 x215 -1 x220 -1 x228 -1 x236 -1 x241 -1 x249 -1 x257 -1 x262 -1 x270 -1 x283 -1 x291 -1 x296 -1 x304 -1 x312 -1 x317 -1 x325 -1 x333 -1 x338 -1 x346 -1 x359 -1 x367 -1 x380 -1 x388 -1 x393 -14 x553 >= -15 ;
+1 x13 +1 x26 +1 x34 +1 x39 +1 x47 +1 x52 +1 x60 +1 x65 +1 x73 +1 x78 +1 x86 +1 x91 +1 x99 +1 x104 +1 x112 +1 x125 +1 x138 +1 x151 +1 x159 +1 x164 +1 x172 +1 x177 +1 x185 +1 x190 +1 x198 +1 x203 +1 x211 +1 x216 +1 x224 +1 x229 +1 x237 +1 x242 +1 x250 +1 x263 +1 x276 +1 x289 +1 x297 +1 x302 +1 x310 +1 x315 +1 x323 +1 x328 +1 x336 +1 x341 +1 x349 +1 x354 +1 x362 +1 x367 +1 x375 +1 x388 >= 1 ;
-1 x13 -1 x26 -1 x34 -1 x39 -1 x47 -1 x52 -1 x60 -1 x65 -1 x73 -1 x78 -1 x86 -1 x91 -1 x99 -1 x104 -1 x112 -1 x125 -1 x138 -1 x151 -1 x159 -1 x164 -1 x172 -1 x177 -1 x185 -1 x190 -1 x198 -1 x203 -1 x211 -1 x216 -1 x224 -1 x229 -1 x237 -1 x242 -1 x250 -1 x263 -1 x276 -1 x289 -1 x297 -1 x302 -1 x310 -1 x315 -1 x323 -1 x328 -1 x336 -1 x341 -1 x349 -1 x354 -1 x362 -1 x367 -1 x375 -1 x388 -14 x554 >= -15 ;
+1 x13 +1 x18 +1 x26 +1 x31 +1 x44 +1 x49 +1 x57 +1 x62 +1 x70 +1 x75 +1 x88 +1 x93 +1 x101 +1 x106 +1 x119 +1 x132 +1 x137 +1 x145 +1 x150 +1 x163 +1 x168 +1 x176 +1 x181 +1 x189 +1 x194 +1 x207 +1 x212 +1 x220 +1 x225 +1 x233 +1 x238 +1 x251 +1 x256 +1 x264 +1 x269 +1 x282 +1 x295 +1 x300 +1 x308 +1 x313 +1 x326 +1 x331 +1 x339 +1 x344 +1 x352 +1 x357 +1 x370 +1 x375 +1 x383 +1 x388 >= 1 ;
-1 x13 -1 x18 -1 x26 -1 x31 -1 x44 -1 x49 -1 x57 -1 x62 -1 x70 -1 x75 -1 x88 -1 x93 -1 x101 -1 x106 -1 x119 -1 x132 -1 x137 -1 x145 -1 x150 -1 x163 -1 x168 -1 x176 -1 x181 -1 x189 -1 x194 -1 x207 -1 x212 -1 x220 -1 x225 -1 x233 -1 x238 -1 x251 -1 x256 -1 x264 -1 x269 -1 x282 -1 x295 -1 x300 -1 x308 -1 x313 -1 x326 -1 x331 -1 x339 -1 x344 -1 x352 -1 x357 -1 x370 -1 x375 -1 x383 -1 x388 -14 x555 >= -15 ;
+1 x5 +1 x13 +1 x18 +1 x23 +1 x31 +1 x36 +1 x41 +1 x49 +1 x54 +1 x59 +1 x72 +1 x77 +1 x90 +1 x95 +1 x108 +1 x113 +1 x126 +1 x131 +1 x144 +1 x149 +1 x162 +1 x167 +1 x180 +1 x185 +1 x198 +1 x203 +1 x216 +1 x221 +1 x234 +1 x239 +1 x252 +1 x257 +1 x270 +1 x275 +1 x288 +1 x293 +1 x306 +1 x311 +1 x324 +1 x329 +1 x342 +1 x347 +1 x352 +1 x360 +1 x365 +1 x370 +1 x378 +1 x383 +1 x388 +1 x396 >= 1 ;
-1 x5 -1 x13 -1 x18 -1 x23 -1 x31 -1 x36 -1 x41 -1 x49 -1 x54 -1 x59 -1 x72 -1 x77 -1 x90 -1 x95 -1 x108 -1 x113 -1 x126 -1 x131 -1 x144 -1 x149 -1 x162 -1 x167 -1 x180 -1 x185 -1 x198 -1 x203 -1 x216 -1 x221 -1 x234 -1 x239 -1 x252 -1 x257 -1 x270 -1 x275 -1 x288 -1 x293 -1 x306 -1 x311 -1 x324 -1 x329 -1 x342 -1 x347 -1 x352 -1 x360 -1 x365 -1 x370 -1 x378 -1 x383 -1 x388 -1 x396 -14 x556 >= -15 ;
+1 x5 +1 x18 +1 x23 +1 x28 +1 x41 +1 x46 +1 x51 +1 x64 +1 x69 +1 x74 +1 x87 +1 x92 +1 x97 +1 x115 +1 x120 +1 x125 +1 x138 +1 x143 +1 x148 +1 x161 +1 x166 +1 x171 +1 x184 +1 x189 +1 x194 +1 x207 +1 x212 +1 x217 +1 x230 +1 x235 +1 x240 +1 x253 +1 x258 +1 x263 +1 x276 +1 x281 +1 x286 +1 x304 +1 x309 +1 x314 +1 x327 +1 x332 +1 x337 +1 x350 +1 x355 +1 x360 +1 x373 +1 x378 +1 x383 +1 x396 >= 1 ;
-1 x5 -1 x18 -1 x23 -1 x28 -1 x41 -1 x46 -1 x51 -1 x64 -1 x69 -1 x74 -1 x87 -1 x92 -1 x97 -1 x115 -1 x120 -1 x125 -1 x138 -1 x143 -1 x148 -1 x161 -1 x166 -1 x171 -1 x184 -1 x189 -1 x194 -1 x207 -1 x212 -1 x217 -1 x230 -1 x235 -1 x240 -1 x253 -1 x258 -1 x263 -1 x276 -1 x281 -1 x286 -1 x304 -1 x309 -1 x314 -1 x327 -1 x332 -1 x337 -1 x350 -1 x355 -1 x360 -1 x373 -1 x378 -1 x383 -1 x396 -14 x557 >= -15 ;
+1 x5 +1 x10 +1 x23 +1 x28 +1 x33 +1 x38 +1 x43 +1 x61 +1 x66 +1 x71 +1 x76 +1 x94 +1 x99 +1 x104 +1 x109 +1 x127 +1 x132 +1 x137 +1 x142 +1 x160 +1 x165 +1 x170 +1 x175 +1 x193 +1 x198 +1 x203 +1 x208 +1 x226 +1 x231 +1 x236 +1 x241 +1 x259 +1 x264 +1 x269 +1 x274 +1 x292 +1 x297 +1 x302 +1 x307 +1 x325 +1 x330 +1 x335 +1 x340 +1 x358 +1 x363 +1 x368 +1 x373 +1 x378 +1 x391 +1 x396 >= 1 ;
-1 x5 -1 x10 -1 x23 -1 x28 -1 x33 -1 x38 -1 x43 -1 x61 -1 x66 -1 x71 -1 x76 -1 x94 -1 x99 -1 x104 -1 x109 -1 x127 -1 x132 -1 x137 -1 x142 -1 x160 -1 x165 -1 x170 -1 x175 -1 x193 -1 x198 -1 x203 -1 x208 -1 x226 -1 x231 -1 x236 -1 x241 -1 x259 -1 x264 -1 x269 -1 x274 -1 x292 -1 x297 -1 x302 -1 x307 -1 x325 -1 x330 -1 x335 -1 x340 -1 x358 -1 x363 -1 x368 -1 x373 -1 x378 -1 x391 -1 x396 -14 x558 >= -15 ;
+1 x5 +1 x10 +1 x15 +1 x43 +1 x48 +1 x53 +1 x58 +1 x63 +1 x68 +1 x73 +1 x101 +1 x106 +1 x111 +1 x116 +1 x121 +1 x126 +1 x131 +1 x154 +1 x159 +1 x164 +1 x169 +1 x174 +1 x179 +1 x184 +1 x189 +1 x212 +1 x217 +1 x222 +1 x227 +1 x232 +1 x237 +1 x242 +1 x247 +1 x270 +1 x275 +1 x280 +1 x285 +1 x290 +1 x295 +1 x300 +1 x328 +1 x333 +1 x338 +1 x343 +1 x348 +1 x353 +1 x358 +1 x386 +1 x391 +1 x396 >= 1 ;
-1 x5 -1 x10 -1 x15 -1 x43 -1 x48 -1 x53 -1 x58 -1 x63 -1 x68 -1 x73 -1 x101 -1 x106 -1 x111 -1 x116 -1 x121 -1 x126 -1 x131 -1 x154 -1 x159 -1 x164 -1 x169 -1 x174 -1 x179 -1 x184 -1 x189 -1 x212 -1 x217 -1 x222 -1 x227 -1 x232 -1 x237 -1 x242 -1 x247 -1 x270 -1 x275 -1 x280 -1 x285 -1 x290 -1 x295 -1 x300 -1 x328 -1 x333 -1 x338 -1 x343 -1 x348 -1 x353 -1 x358 -1 x386 -1 x391 -1 x396 -14 x559 >= -15 ;
+1 x5 +1 x10 +1 x15 +1 x20 +1 x25 +1 x30 +1 x35 +1 x40 +1 x45 +1 x50 +1 x55 +1 x60 +1 x138 +1 x143 +1 x148 +1 x153 +1 x158 +1 x163 +1 x168 +1 x173 +1 x178 +1 x183 +1 x188 +1 x193 +1 x198 +1 x203 +1 x208 +1 x213 +1 x218 +1 x223 +1 x228 +1 x233 +1 x238 +1 x243 +1 x248 +1 x253 +1 x258 +1 x263 +1 x341 +1 x346 +1 x351 +1 x356 +1 x361 +1 x366 +1 x371 +1 x376 +1 x381 +1 x386 +1 x391 +1 x396 >= 1 ;
-1 x5 -1 x10 -1 x15 -1 x20 -1 x25 -1 x30 -1 x35 -1 x40 -1 x45 -1 x50 -1 x55 -1 x60 -1 x138 -1 x143 -1 x148 -1 x153 -1 x158 -1 x163 -1 x168 -1 x173 -1 x178 -1 x183 -1 x188 -1 x193 -1 x198 -1 x203 -1 x208 -1 x213 -1 x218 -1 x223 -1 x228 -1 x233 -1 x238 -1 x243 -1 x248 -1 x253 -1 x258 -1 x263 -1 x341 -1 x346 -1 x351 -1 x356 -1 x361 -1 x366 -1 x371 -1 x376 -1 x381 -1 x386 -1 x391 -1 x396 -14 x560 >= -15 ;
+1 x5 +1 x10 +1 x15 +1 x20 +1 x25 +1 x30 +1 x35 +1 x40 +1 x92 +1 x97 +1 x102 +1 x107 +1 x112 +1 x117 +1 x122 +1 x127 +1 x132 +1 x137 +1 x142 +1 x147 +1 x152 +1 x157 +1 x162 +1 x167 +1 x172 +1 x229 +1 x234 +1 x239 +1 x244 +1 x249 +1 x254 +1 x259 +1 x264 +1 x269 +1 x274 +1 x279 +1 x284 +1 x289 +1 x294 +1 x299 +1 x304 +1 x309 +1 x361 +1 x366 +1 x371 +1 x376 +1 x381 +1 x386 +1 x391 +1 x396 >= 1 ;
-1 x5 -1 x10 -1 x15 -1 x20 -1 x25 -1 x30 -1 x35 -1 x40 -1 x92 -1 x97 -1 x102 -1 x107 -1 x112 -1 x117 -1 x122 -1 x127 -1 x132 -1 x137 -1 x142 -1 x147 -1 x152 -1 x157 -1 x162 -1 x167 -1 x172 -1 x229 -1 x234 -1 x239 -1 x244 -1 x249 -1 x254 -1 x259 -1 x264 -1 x269 -1 x274 -1 x279 -1 x284 -1 x289 -1 x294 -1 x299 -1 x304 -1 x309 -1 x361 -1 x366 -1 x371 -1 x376 -1 x381 -1 x386 -1 x391 -1 x396 -14 x561 >= -15 ;
+1 x5 +1 x10 +1 x15 +1 x37 +1 x42 +1 x47 +1 x52 +1 x57 +1 x62 +1 x89 +1 x94 +1 x99 +1 x104 +1 x109 +1 x114 +1 x136 +1 x141 +1 x146 +1 x151 +1 x156 +1 x161 +1 x166 +1 x188 +1 x193 +1 x198 +1 x203 +1 x208 +1 x213 +1 x235 +1 x240 +1 x245 +1 x250 +1 x255 +1 x260 +1 x265 +1 x287 +1 x292 +1 x297 +1 x302 +1 x307 +1 x312 +1 x339 +1 x344 +1 x349 +1 x354 +1 x359 +1 x364 +1 x386 +1 x391 +1 x396 >= 1 ;
-1 x5 -1 x10 -1 x15 -1 x37 -1 x42 -1 x47 -1 x52 -1 x57 -1 x62 -1 x89 -1 x94 -1 x99 -1 x104 -1 x109 -1 x114 -1 x136 -1 x141 -1 x146 -1 x151 -1 x156 -1 x161 -1 x166 -1 x188 -1 x193 -1 x198 -1 x203 -1 x208 -1 x213 -1 x235 -1 x240 -1 x245 -1 x250 -1 x255 -1 x260 -1 x265 -1 x287 -1 x292 -1 x297 -1 x302 -1 x307 -1 x312 -1 x339 -1 x344 -1 x349 -1 x354 -1 x359 -1 x364 -1 x386 -1 x391 -1 x396 -14 x562 >= -15 ;
+1 x5 +1 x22 +1 x27 +1 x32 +1 x37 +1 x54 +1 x59 +1 x64 +1 x69 +1 x86 +1 x91 +1 x96 +1 x101 +1 x118 +1 x123 +1 x128 +1 x133 +1 x145 +1 x150 +1 x155 +1 x160 +1 x177 +1 x182 +1 x187 +1 x192 +1 x209 +1 x214 +1 x219 +1 x224 +1 x241 +1 x246 +1 x251 +1 x256 +1 x268 +1 x273 +1 x278 +1 x283 +1 x300 +1 x305 +1 x310 +1 x315 +1 x332 +1 x337 +1 x342 +1 x347 +1 x364 +1 x369 +1 x374 +1 x379 +1 x396 >= 1 ;
-1 x5 -1 x22 -1 x27 -1 x32 -1 x37 -1 x54 -1 x59 -1 x64 -1 x69 -1 x86 -1 x91 -1 x96 -1 x101 -1 x118 -1 x123 -1 x128 -1 x133 -1 x145 -1 x150 -1 x155 -1 x160 -1 x177 -1 x182 -1 x187 -1 x192 -1 x209 -1 x214 -1 x219 -1 x224 -1 x241 -1 x246 -1 x251 -1 x256 -1 x268 -1 x273 -1 x278 -1 x283 -1 x300 -1 x305 -1 x310 -1 x315 -1 x332 -1 x337 -1 x342 -1 x347 -1 x364 -1 x369 -1 x374 -1 x379 -1 x396 -14 x563 >= -15 ;
+1 x5 +1 x17 +1 x22 +1 x27 +1 x39 +1 x44 +1 x49 +1 x61 +1 x66 +1 x71 +1 x83 +1 x88 +1 x93 +1 x105 +1 x110 +1 x115 +1 x127 +1 x132 +1 x137 +1 x149 +1 x154 +1 x159 +1 x176 +1 x181 +1 x198 +1 x203 +1 x220 +1 x225 +1 x242 +1 x247 +1 x252 +1 x264 +1 x269 +1 x274 +1 x286 +1 x291 +1 x296 +1 x308 +1 x313 +1 x318 +1 x330 +1 x335 +1 x340 +1 x352 +1 x357 +1 x362 +1 x374 +1 x379 +1 x384 +1 x396 >= 1 ;
-1 x5 -1 x17 -1 x22 -1 x27 -1 x39 -1 x44 -1 x49 -1 x61 -1 x66 -1 x71 -1 x83 -1 x88 -1 x93 -1 x105 -1 x110 -1 x115 -1 x127 -1 x132 -1 x137 -1 x149 -1 x154 -1 x159 -1 x176 -1 x181 -1 x198 -1 x203 -1 x220 -1 x225 -1 x242 -1 x247 -1 x252 -1 x264 -1 x269 -1 x274 -1 x286 -1 x291 -1 x296 -1 x308 -1 x313 -1 x318 -1 x330 -1 x335 -1 x340 -1 x352 -1 x357 -1 x362 -1 x374 -1 x379 -1 x384 -1 x396 -14 x564 >= -15 ;
+1 x5 +1 x12 +1 x17 +1 x22 +1 x34 +1 x39 +1 x51 +1 x56 +1 x68 +1 x73 +1 x85 +1 x90 +1 x102 +1 x107 +1 x119 +1 x124 +1 x136 +1 x141 +1 x153 +1 x158 +1 x170 +1 x175 +1 x187 +1 x192 +1 x197 +1 x204 +1 x209 +1 x214 +1 x226 +1 x231 +1 x243 +1 x248 +1 x260 +1 x265 +1 x277 +1 x282 +1 x294 +1 x299 +1 x311 +1 x316 +1 x328 +1 x333 +1 x345 +1 x350 +1 x362 +1 x367 +1 x379 +1 x384 +1 x389 +1 x396 >= 1 ;
-1 x5 -1 x12 -1 x17 -1 x22 -1 x34 -1 x39 -1 x51 -1 x56 -1 x68 -1 x73 -1 x85 -1 x90 -1 x102 -1 x107 -1 x119 -1 x124 -1 x136 -1 x141 -1 x153 -1 x158 -1 x170 -1 x175 -1 x187 -1 x192 -1 x197 -1 x204 -1 x209 -1 x214 -1 x226 -1 x231 -1 x243 -1 x248 -1 x260 -1 x265 -1 x277 -1 x282 -1 x294 -1 x299 -1 x311 -1 x316 -1 x328 -1 x333 -1 x345 -1 x350 -1 x362 -1 x367 -1 x379 -1 x384 -1 x389 -1 x396 -14 x565 >= -15 ;
+1 x12 +1 x17 +1 x29 +1 x41 +1 x46 +1 x53 +1 x58 +1 x70 +1 x75 +1 x82 +1 x87 +1 x99 +1 x104 +1 x111 +1 x116 +1 x128 +1 x133 +1 x140 +1 x145 +1 x157 +1 x162 +1 x169 +1 x174 +1 x186 +1 x198 +1 x203 +1 x215 +1 x227 +1 x232 +1 x239 +1 x244 +1 x256 +1 x261 +1 x268 +1 x273 +1 x285 +1 x290 +1 x297 +1 x302 +1 x314 +1 x319 +1 x326 +1 x331 +1 x343 +1 x348 +1 x355 +1 x360 +1 x372 +1 x384 +1 x389 >= 1 ;
-1 x12 -1 x17 -1 x29 -1 x41 -1 x46 -1 x53 -1 x58 -1 x70 -1 x75 -1 x82 -1 x87 -1 x99 -1 x104 -1 x111 -1 x116 -1 x128 -1 x133 -1 x140 -1 x145 -1 x157 -1 x162 -1 x169 -1 x174 -1 x186 -1 x198 -1 x203 -1 x215 -1 x227 -1 x232 -1 x239 -1 x244 -1 x256 -1 x261 -1 x268 -1 x273 -1 x285 -1 x290 -1 x297 -1 x302 -1 x314 -1 x319 -1 x326 -1 x331 -1 x343 -1 x348 -1 x355 -1 x360 -1 x372 -1 x384 -1 x389 -14 x566 >= -15 ;
+1 x12 +1 x24 +1 x36 +1 x48 +1 x60 +1 x72 +1 x84 +1 x96 +1 x101 +1 x108 +1 x113 +1 x120 +1 x125 +1 x132 +1 x137 +1 x144 +1 x149 +1 x156 +1 x161 +1 x168 +1 x173 +1 x180 +1 x185 +1 x192 +1 x197 +1 x204 +1 x209 +1 x216 +1 x221 +1 x228 +1 x233 +1 x240 +1 x245 +1 x252 +1 x257 +1 x264 +1 x269 +1 x276 +1 x281 +1 x288 +1 x293 +1 x300 +1 x305 +1 x317 +1 x329 +1 x341 +1 x353 +1 x365 +1 x377 +1 x389 >= 1 ;
-1 x12 -1 x24 -1 x36 -1 x48 -1 x60 -1 x72 -1 x84 -1 x96 -1 x101 -1 x108 -1 x113 -1 x120 -1 x125 -1 x132 -1 x137 -1 x144 -1 x149 -1 x156 -1 x161 -1 x168 -1 x173 -1 x180 -1 x185 -1 x192 -1 x197 -1 x204 -1 x209 -1 x216 -1 x221 -1 x228 -1 x233 -1 x240 -1 x245 -1 x252 -1 x257 -1 x264 -1 x269 -1 x276 -1 x281 -1 x288 -1 x293 -1 x300 -1 x305 -1 x317 -1 x329 -1 x341 -1 x353 -1 x365 -1 x377 -1 x389 -14 x567 >= -15 ;
+1 x12 +1 x19 +1 x24 +1 x31 +1 x43 +1 x50 +1 x55 +1 x62 +1 x74 +1 x86 +1 x93 +1 x98 +1 x105 +1 x117 +1 x124 +1 x129 +1 x136 +1 x148 +1 x155 +1 x160 +1 x167 +1 x172 +1 x179 +1 x191 +1 x198 +1 x203 +1 x210 +1 x222 +1 x229 +1 x234 +1 x241 +1 x246 +1 x253 +1 x265 +1 x272 +1 x277 +1 x284 +1 x296 +1 x303 +1 x308 +1 x315 +1 x327 +1 x339 +1 x346 +1 x351 +1 x358 +1 x370 +1 x377 +1 x382 +1 x389 >= 1 ;
-1 x12 -1 x19 -1 x24 -1 x31 -1 x43 -1 x50 -1 x55 -1 x62 -1 x74 -1 x86 -1 x93 -1 x98 -1 x105 -1 x117 -1 x124 -1 x129 -1 x136 -1 x148 -1 x155 -1 x160 -1 x167 -1 x172 -1 x179 -1 x191 -1 x198 -1 x203 -1 x210 -1 x222 -1 x229 -1 x234 -1 x241 -1 x246 -1 x253 -1 x265 -1 x272 -1 x277 -1 x284 -1 x296 -1 x303 -1 x308 -1 x315 -1 x327 -1 x339 -1 x346 -1 x351 -1 x358 -1 x370 -1 x377 -1 x382 -1 x389 -14 x568 >= -15 ;
+1 x7 +1 x12 +1 x19 +1 x26 +1 x38 +1 x45 +1 x57 +1 x64 +1 x76 +1 x83 +1 x95 +1 x102 +1 x109 +1 x114 +1 x121 +1 x128 +1 x133 +1 x140 +1 x147 +1 x152 +1 x159 +1 x166 +1 x178 +1 x185 +1 x197 +1 x204 +1 x216 +1 x223 +1 x235 +1 x242 +1 x249 +1 x254 +1 x261 +1 x268 +1 x273 +1 x280 +1 x287 +1 x292 +1 x299 +1 x306 +1 x318 +1 x325 +1 x337 +1 x344 +1 x356 +1 x363 +1 x375 +1 x382 +1 x389 +1 x394 >= 1 ;
-1 x7 -1 x12 -1 x19 -1 x26 -1 x38 -1 x45 -1 x57 -1 x64 -1 x76 -1 x83 -1 x95 -1 x102 -1 x109 -1 x114 -1 x121 -1 x128 -1 x133 -1 x140 -1 x147 -1 x152 -1 x159 -1 x166 -1 x178 -1 x185 -1 x197 -1 x204 -1 x216 -1 x223 -1 x235 -1 x242 -1 x249 -1 x254 -1 x261 -1 x268 -1 x273 -1 x280 -1 x287 -1 x292 -1 x299 -1 x306 -1 x318 -1 x325 -1 x337 -1 x344 -1 x356 -1 x363 -1 x375 -1 x382 -1 x389 -1 x394 -14 x569 >= -15 ;
+1 x7 +1 x19 +1 x26 +1 x33 +1 x40 +1 x52 +1 x59 +1 x66 +1 x73 +1 x85 +1 x92 +1 x99 +1 x106 +1 x111 +1 x118 +1 x125 +1 x132 +1 x144 +1 x151 +1 x158 +1 x165 +1 x177 +1 x184 +1 x191 +1 x198 +1 x203 +1 x210 +1 x217 +1 x224 +1 x236 +1 x243 +1 x250 +1 x257 +1 x269 +1 x276 +1 x283 +1 x290 +1 x295 +1 x302 +1 x309 +1 x316 +1 x328 +1 x335 +1 x342 +1 x349 +1 x361 +1 x368 +1 x375 +1 x382 +1 x394 >= 1 ;
-1 x7 -1 x19 -1 x26 -1 x33 -1 x40 -1 x52 -1 x59 -1 x66 -1 x73 -1 x85 -1 x92 -1 x99 -1 x106 -1 x111 -1 x118 -1 x125 -1 x132 -1 x144 -1 x151 -1 x158 -1 x165 -1 x177 -1 x184 -1 x191 -1 x198 -1 x203 -1 x210 -1 x217 -1 x224 -1 x236 -1 x243 -1 x250 -1 x257 -1 x269 -1 x276 -1 x283 -1 x290 -1 x295 -1 x302 -1 x309 -1 x316 -1 x328 -1 x335 -1 x342 -1 x349 -1 x361 -1 x368 -1 x375 -1 x382 -1 x394 -14 x570 >= -15 ;
+1 x7 +1 x14 +1 x21 +1 x28 +1 x40 +1 x47 +1 x54 +1 x61 +1 x68 +1 x75 +1 x82 +1 x89 +1 x96 +1 x108 +1 x115 +1 x122 +1 x129 +1 x136 +1 x143 +1 x150 +1 x157 +1 x176 +1 x183 +1 x190 +1 x197 +1 x204 +1 x211 +1 x218 +1 x225 +1 x244 +1 x251 +1 x258 +1 x265 +1 x272 +1 x279 +1 x286 +1 x293 +1 x305 +1 x312 +1 x319 +1 x326 +1 x333 +1 x340 +1 x347 +1 x354 +1 x361 +1 x373 +1 x380 +1 x387 +1 x394 >= 1 ;
-1 x7 -1 x14 -1 x21 -1 x28 -1 x40 -1 x47 -1 x54 -1 x61 -1 x68 -1 x75 -1 x82 -1 x89 -1 x96 -1 x108 -1 x115 -1 x122 -1 x129 -1 x136 -1 x143 -1 x150 -1 x157 -1 x176 -1 x183 -1 x190 -1 x197 -1 x204 -1 x211 -1 x218 -1 x225 -1 x244 -1 x251 -1 x258 -1 x265 -1 x272 -1 x279 -1 x286 -1 x293 -1 x305 -1 x312 -1 x319 -1 x326 -1 x333 -1 x340 -1 x347 -1 x354 -1 x361 -1 x373 -1 x380 -1 x387 -1 x394 -14 x571 >= -15 ;
+1 x7 +1 x14 +1 x21 +1 x28 +1 x35 +1 x42 +1 x49 +1 x56 +1 x63 +1 x70 +1 x77 +1 x84 +1 x91 +1 x98 +1 x105 +1 x112 +1 x119 +1 x126 +1 x133 +1 x140 +1 x147 +1 x154 +1 x161 +1 x168 +1 x175 +1 x226 +1 x233 +1 x240 +1 x247 +1 x254 +1 x261 +1 x268 +1 x275 +1 x282 +1 x289 +1 x296 +1 x303 +1 x310 +1 x317 +1 x324 +1 x331 +1 x338 +1 x345 +1 x352 +1 x359 +1 x366 +1 x373 +1 x380 +1 x387 +1 x394 >= 1 ;
-1 x7 -1 x14 -1 x21 -1 x28 -1 x35 -1 x42 -1 x49 -1 x56 -1 x63 -1 x70 -1 x77 -1 x84 -1 x91 -1 x98 -1 x105 -1 x112 -1 x119 -1 x126 -1 x133 -1 x140 -1 x147 -1 x154 -1 x161 -1 x168 -1 x175 -1 x226 -1 x233 -1 x240 -1 x247 -1 x254 -1 x261 -1 x268 -1 x275 -1 x282 -1 x289 -1 x296 -1 x303 -1 x310 -1 x317 -1 x324 -1 x331 -1 x338 -1 x345 -1 x352 -1 x359 -1 x366 -1 x373 -1 x380 -1 x387 -1 x394 -14 x572 >= -15 ;
+1 x7 +1 x14 +1 x21 +1 x30 +1 x37 +1 x44 +1 x51 +1 x58 +1 x65 +1 x72 +1 x81 +1 x88 +1 x95 +1 x102 +1 x109 +1 x116 +1 x132 +1 x139 +1 x146 +1 x153 +1 x160 +1 x167 +1 x183 +1 x190 +1 x197 +1 x204 +1 x211 +1 x218 +1 x234 +1 x241 +1 x248 +1 x255 +1 x262 +1 x269 +1 x285 +1 x292 +1 x299 +1 x306 +1 x313 +1 x320 +1 x329 +1 x336 +1 x343 +1 x350 +1 x357 +1 x364 +1 x371 +1 x380 +1 x387 +1 x394 >= 1 ;
-1 x7 -1 x14 -1 x21 -1 x30 -1 x37 -1 x44 -1 x51 -1 x58 -1 x65 -1 x72 -1 x81 -1 x88 -1 x95 -1 x102 -1 x109 -1 x116 -1 x132 -1 x139 -1 x146 -1 x153 -1 x160 -1 x167 -1 x183 -1 x190 -1 x197 -1 x204 -1 x211 -1 x218 -1 x234 -1 x241 -1 x248 -1 x255 -1 x262 -1 x269 -1 x285 -1 x292 -1 x299 -1 x306 -1 x313 -1 x320 -1 x329 -1 x336 -1 x343 -1 x350 -1 x357 -1 x364 -1 x371 -1 x380 -1 x387 -1 x394 -14 x573 >= -15 ;
+1 x7 +1 x16 +1 x23 +1 x30 +1 x37 +1 x46 +1 x53 +1 x60 +1 x69 +1 x76 +1 x83 +1 x90 +1 x99 +1 x106 +1 x113 +1 x122 +1 x129 +1 x136 +1 x143 +1 x152 +1 x159 +1 x166 +1 x182 +1 x189 +1 x196 +1 x205 +1 x212 +1 x219 +1 x235 +1 x242 +1 x249 +1 x258 +1 x265 +1 x272 +1 x279 +1 x288 +1 x295 +1 x302 +1 x311 +1 x318 +1 x325 +1 x332 +1 x341 +1 x348 +1 x355 +1 x364 +1 x371 +1 x378 +1 x385 +1 x394 >= 1 ;
-1 x7 -1 x16 -1 x23 -1 x30 -1 x37 -1 x46 -1 x53 -1 x60 -1 x69 -1 x76 -1 x83 -1 x90 -1 x99 -1 x106 -1 x113 -1 x122 -1 x129 -1 x136 -1 x143 -1 x152 -1 x159 -1 x166 -1 x182 -1 x189 -1 x196 -1 x205 -1 x212 -1 x219 -1 x235 -1 x242 -1 x249 -1 x258 -1 x265 -1 x272 -1 x279 -1 x288 -1 x295 -1 x302 -1 x311 -1 x318 -1 x325 -1 x332 -1 x341 -1 x348 -1 x355 -1 x364 -1 x371 -1 x378 -1 x385 -1 x394 -14 x574 >= -15 ;
+1 x7 +1 x16 +1 x23 +1 x32 +1 x39 +1 x48 +1 x55 +1 x62 +1 x71 +1 x78 +1 x87 +1 x94 +1 x103 +1 x110 +1 x117 +1 x126 +1 x133 +1 x142 +1 x149 +1 x158 +1 x165 +1 x172 +1 x181 +1 x188 +1 x197 +1 x204 +1 x213 +1 x220 +1 x229 +1 x236 +1 x243 +1 x252 +1 x259 +1 x268 +1 x275 +1 x284 +1 x291 +1 x298 +1 x307 +1 x314 +1 x323 +1 x330 +1 x339 +1 x346 +1 x353 +1 x362 +1 x369 +1 x378 +1 x385 +1 x394 >= 1 ;
-1 x7 -1 x16 -1 x23 -1 x32 -1 x39 -1 x48 -1 x55 -1 x62 -1 x71 -1 x78 -1 x87 -1 x94 -1 x103 -1 x110 -1 x117 -1 x126 -1 x133 -1 x142 -1 x149 -1 x158 -1 x165 -1 x172 -1 x181 -1 x188 -1 x197 -1 x204 -1 x213 -1 x220 -1 x229 -1 x236 -1 x243 -1 x252 -1 x259 -1 x268 -1 x275 -1 x284 -1 x291 -1 x298 -1 x307 -1 x314 -1 x323 -1 x330 -1 x339 -1 x346 -1 x353 -1 x362 -1 x369 -1 x378 -1 x385 -1 x394 -14 x575 >= -15 ;
+1 x9 +1 x16 +1 x25 +1 x32 +1 x41 +1 x50 +1 x57 +1 x66 +1 x73 +1 x82 +1 x89 +1 x91 +1 x98 +1 x107 +1 x114 +1 x123 +1 x130 +1 x139 +1 x148 +1 x155 +1 x164 +1 x171 +1 x180 +1 x189 +1 x196 +1 x205 +1 x212 +1 x221 +1 x230 +1 x237 +1 x246 +1 x253 +1 x262 +1 x271 +1 x278 +1 x287 +1 x294 +1 x303 +1 x310 +1 x312 +1 x319 +1 x328 +1 x335 +1 x344 +1 x351 +1 x360 +1 x369 +1 x376 +1 x385 +1 x392 >= 1 ;
-1 x9 -1 x16 -1 x25 -1 x32 -1 x41 -1 x50 -1 x57 -1 x66 -1 x73 -1 x82 -1 x89 -1 x91 -1 x98 -1 x107 -1 x114 -1 x123 -1 x130 -1 x139 -1 x148 -1 x155 -1 x164 -1 x171 -1 x180 -1 x189 -1 x196 -1 x205 -1 x212 -1 x221 -1 x230 -1 x237 -1 x246 -1 x253 -1 x262 -1 x271 -1 x278 -1 x287 -1 x294 -1 x303 -1 x310 -1 x312 -1 x319 -1 x328 -1 x335 -1 x344 -1 x351 -1 x360 -1 x369 -1 x376 -1 x385 -1 x392 -14 x576 >= -15 ;
+1 x9 +1 x16 +1 x18 +1 x25 +1 x34 +1 x43 +1 x52 +1 x59 +1 x68 +1 x77 +1 x86 +1 x93 +1 x102 +1 x111 +1 x120 +1 x127 +1 x129 +1 x136 +1 x145 +1 x154 +1 x163 +1 x170 +1 x179 +1 x188 +1 x197 +1 x204 +1 x213 +1 x222 +1 x231 +1 x238 +1 x247 +1 x256 +1 x265 +1 x272 +1 x274 +1 x281 +1 x290 +1 x299 +1 x308 +1 x315 +1 x324 +1 x333 +1 x342 +1 x349 +1 x358 +1 x367 +1 x376 +1 x383 +1 x385 +1 x392 >= 1 ;
-1 x9 -1 x16 -1 x18 -1 x25 -1 x34 -1 x43 -1 x52 -1 x59 -1 x68 -1 x77 -1 x86 -1 x93 -1 x102 -1 x111 -1 x120 -1 x127 -1 x129 -1 x136 -1 x145 -1 x154 -1 x163 -1 x170 -1 x179 -1 x188 -1 x197 -1 x204 -1 x213 -1 x222 -1 x231 -1 x238 -1 x247 -1 x256 -1 x265 -1 x272 -1 x274 -1 x281 -1 x290 -1 x299 -1 x308 -1 x315 -1 x324 -1 x333 -1 x342 -1 x349 -1 x358 -1 x367 -1 x376 -1 x383 -1 x385 -1 x392 -14 x577 >= -15 ;
+1 x9 +1 x18 +1 x27 +1 x36 +1 x45 +1 x54 +1 x63 +1 x72 +1 x81 +1 x88 +1 x90 +1 x97 +1 x99 +1 x106 +1 x108 +1 x115 +1 x124 +1 x133 +1 x142 +1 x151 +1 x160 +1 x169 +1 x178 +1 x187 +1 x196 +1 x205 +1 x214 +1 x223 +1 x232 +1 x241 +1 x250 +1 x259 +1 x268 +1 x277 +1 x286 +1 x293 +1 x295 +1 x302 +1 x304 +1 x311 +1 x313 +1 x320 +1 x329 +1 x338 +1 x347 +1 x356 +1 x365 +1 x374 +1 x383 +1 x392 >= 1 ;
-1 x9 -1 x18 -1 x27 -1 x36 -1 x45 -1 x54 -1 x63 -1 x72 -1 x81 -1 x88 -1 x90 -1 x97 -1 x99 -1 x106 -1 x108 -1 x115 -1 x124 -1 x133 -1 x142 -1 x151 -1 x160 -1 x169 -1 x178 -1 x187 -1 x196 -1 x205 -1 x214 -1 x223 -1 x232 -1 x241 -1 x250 -1 x259 -1 x268 -1 x277 -1 x286 -1 x293 -1 x295 -1 x302 -1 x304 -1 x311 -1 x313 -1 x320 -1 x329 -1 x338 -1 x347 -1 x356 -1 x365 -1 x374 -1 x383 -1 x392 -14 x578 >= -15 ;
+1 x9 +1 x18 +1 x27 +1 x29 +1 x38 +1 x47 +1 x56 +1 x65 +1 x74 +1 x83 +1 x85 +1 x94 +1 x103 +1 x112 +1 x121 +1 x130 +1 x139 +1 x141 +1 x150 +1 x159 +1 x168 +1 x177 +1 x186 +1 x195 +1 x197 +1 x204 +1 x206 +1 x215 +1 x224 +1 x233 +1 x242 +1 x251 +1 x260 +1 x262 +1 x271 +1 x280 +1 x289 +1 x298 +1 x307 +1 x316 +1 x318 +1 x327 +1 x336 +1 x345 +1 x354 +1 x363 +1 x372 +1 x374 +1 x383 +1 x392 >= 1 ;
-1 x9 -1 x18 -1 x27 -1 x29 -1 x38 -1 x47 -1 x56 -1 x65 -1 x74 -1 x83 -1 x85 -1 x94 -1 x103 -1 x112 -1 x121 -1 x130 -1 x139 -1 x141 -1 x150 -1 x159 -1 x168 -1 x177 -1 x186 -1 x195 -1 x197 -1 x204 -1 x206 -1 x215 -1 x224 -1 x233 -1 x242 -1 x251 -1 x260 -1 x262 -1 x271 -1 x280 -1 x289 -1 x298 -1 x307 -1 x316 -1 x318 -1 x327 -1 x336 -1 x345 -1 x354 -1 x363 -1 x372 -1 x374 -1 x383 -1 x392 -14 x579 >= -15 ;
+1 x9 +1 x11 +1 x20 +1 x29 +1 x38 +1 x40 +1 x49 +1 x58 +1 x69 +1 x78 +1 x87 +1 x89 +1 x98 +1 x107 +1 x118 +1 x127 +1 x136 +1 x138 +1 x147 +1 x156 +1 x167 +1 x176 +1 x185 +1 x187 +1 x196 +1 x205 +1 x214 +1 x216 +1 x225 +1 x234 +1 x245 +1 x254 +1 x263 +1 x265 +1 x274 +1 x283 +1 x294 +1 x303 +1 x312 +1 x314 +1 x323 +1 x332 +1 x343 +1 x352 +1 x361 +1 x363 +1 x372 +1 x381 +1 x390 +1 x392 >= 1 ;
-1 x9 -1 x11 -1 x20 -1 x29 -1 x38 -1 x40 -1 x49 -1 x58 -1 x69 -1 x78 -1 x87 -1 x89 -1 x98 -1 x107 -1 x118 -1 x127 -1 x136 -1 x138 -1 x147 -1 x156 -1 x167 -1 x176 -1 x185 -1 x187 -1 x196 -1 x205 -1 x214 -1 x216 -1 x225 -1 x234 -1 x245 -1 x254 -1 x263 -1 x265 -1 x274 -1 x283 -1 x294 -1 x303 -1 x312 -1 x314 -1 x323 -1 x332 -1 x343 -1 x352 -1 x361 -1 x363 -1 x372 -1 x381 -1 x390 -1 x392 -14 x580 >= -15 ;
+1 x9 +1 x11 +1 x20 +1 x31 +1 x40 +1 x42 +1 x51 +1 x62 +1 x71 +1 x73 +1 x82 +1 x93 +1 x102 +1 x104 +1 x113 +1 x124 +1 x133 +1 x144 +1 x153 +1 x155 +1 x164 +1 x175 +1 x184 +1 x186 +1 x195 +1 x206 +1 x215 +1 x217 +1 x226 +1 x237 +1 x246 +1 x248 +1 x257 +1 x268 +1 x277 +1 x288 +1 x297 +1 x299 +1 x308 +1 x319 +1 x328 +1 x330 +1 x339 +1 x350 +1 x359 +1 x361 +1 x370 +1 x381 +1 x390 +1 x392 >= 1 ;
-1 x9 -1 x11 -1 x20 -1 x31 -1 x40 -1 x42 -1 x51 -1 x62 -1 x71 -1 x73 -1 x82 -1 x93 -1 x102 -1 x104 -1 x113 -1 x124 -1 x133 -1 x144 -1 x153 -1 x155 -1 x164 -1 x175 -1 x184 -1 x186 -1 x195 -1 x206 -1 x215 -1 x217 -1 x226 -1 x237 -1 x246 -1 x248 -1 x257 -1 x268 -1 x277 -1 x288 -1 x297 -1 x299 -1 x308 -1 x319 -1 x328 -1 x330 -1 x339 -1 x350 -1 x359 -1 x361 -1 x370 -1 x381 -1 x390 -1 x392 -14 x581 >= -15 ;
+1 x11 +1 x22 +1 x33 +1 x42 +1 x44 +1 x53 +1 x55 +1 x64 +1 x66 +1 x75 +1 x77 +1 x86 +1 x88 +1 x97 +1 x108 +1 x119 +1 x130 +1 x141 +1 x152 +1 x163 +1 x174 +1 x183 +1 x185 +1 x194 +1 x196 +1 x205 +1 x207 +1 x216 +1 x218 +1 x227 +1 x238 +1 x249 +1 x260 +1 x271 +1 x282 +1 x293 +1 x304 +1 x313 +1 x315 +1 x324 +1 x326 +1 x335 +1 x337 +1 x346 +1 x348 +1 x357 +1 x359 +1 x368 +1 x379 +1 x390 >= 1 ;
-1 x11 -1 x22 -1 x33 -1 x42 -1 x44 -1 x53 -1 x55 -1 x64 -1 x66 -1 x75 -1 x77 -1 x86 -1 x88 -1 x97 -1 x108 -1 x119 -1 x130 -1 x141 -1 x152 -1 x163 -1 x174 -1 x183 -1 x185 -1 x194 -1 x196 -1 x205 -1 x207 -1 x216 -1 x218 -1 x227 -1 x238 -1 x249 -1 x260 -1 x271 -1 x282 -1 x293 -1 x304 -1 x313 -1 x315 -1 x324 -1 x326 -1 x335 -1 x337 -1 x346 -1 x348 -1 x357 -1 x359 -1 x368 -1 x379 -1 x390 -14 x582 >= -15 ;
+1 x11 +1 x22 +1 x24 +1 x33 +1 x35 +1 x46 +1 x57 +1 x68 +1 x70 +1 x79 +1 x81 +1 x92 +1 x103 +1 x114 +1 x116 +1 x125 +1 x127 +1 x138 +1 x149 +1 x160 +1 x171 +1 x173 +1 x182 +1 x184 +1 x195 +1 x206 +1 x217 +1 x219 +1 x228 +1 x230 +1 x241 +1 x252 +1 x263 +1 x274 +1 x276 +1 x285 +1 x287 +1 x298 +1 x309 +1 x320 +1 x322 +1 x331 +1 x333 +1 x344 +1 x355 +1 x366 +1 x368 +1 x377 +1 x379 +1 x390 >= 1 ;
-1 x11 -1 x22 -1 x24 -1 x33 -1 x35 -1 x46 -1 x57 -1 x68 -1 x70 -1 x79 -1 x81 -1 x92 -1 x103 -1 x114 -1 x116 -1 x125 -1 x127 -1 x138 -1 x149 -1 x160 -1 x171 -1 x173 -1 x182 -1 x184 -1 x195 -1 x206 -1 x217 -1 x219 -1 x228 -1 x230 -1 x241 -1 x252 -1 x263 -1 x274 -1 x276 -1 x285 -1 x287 -1 x298 -1 x309 -1 x320 -1 x322 -1 x331 -1 x333 -1 x344 -1 x355 -1 x366 -1 x368 -1 x377 -1 x379 -1 x390 -14 x583 >= -15 ;
+1 x11 +1 x13 +1 x24 +1 x35 +1 x37 +1 x48 +1 x50 +1 x61 +1 x72 +1 x74 +1 x85 +1 x96 +1 x98 +1 x109 +1 x120 +1 x122 +1 x133 +1 x135 +1 x146 +1 x157 +1 x159 +1 x170 +1 x181 +1 x183 +1 x194 +1 x207 +1 x218 +1 x220 +1 x231 +1 x242 +1 x244 +1 x255 +1 x266 +1 x268 +1 x279 +1 x281 +1 x292 +1 x303 +1 x305 +1 x316 +1 x327 +1 x329 +1 x340 +1 x351 +1 x353 +1 x364 +1 x366 +1 x377 +1 x388 +1 x390 >= 1 ;
-1 x11 -1 x13 -1 x24 -1 x35 -1 x37 -1 x48 -1 x50 -1 x61 -1 x72 -1 x74 -1 x85 -1 x96 -1 x98 -1 x109 -1 x120 -1 x122 -1 x133 -1 x135 -1 x146 -1 x157 -1 x159 -1 x170 -1 x181 -1 x183 -1 x194 -1 x207 -1 x218 -1 x220 -1 x231 -1 x242 -1 x244 -1 x255 -1 x266 -1 x268 -1 x279 -1 x281 -1 x292 -1 x303 -1 x305 -1 x316 -1 x327 -1 x329 -1 x340 -1 x351 -1 x353 -1 x364 -1 x366 -1 x377 -1 x388 -1 x390 -14 x584 >= -15 ;
+1 x13 +1 x26 +1 x39 +1 x52 +1 x65 +1 x76 +1 x78 +1 x89 +1 x91 +1 x102 +1 x104 +1 x115 +1 x117 +1 x128 +1 x130 +1 x141 +1 x143 +1 x154 +1 x156 +1 x167 +1 x169 +1 x180 +1 x182 +1 x193 +1 x195 +1 x206 +1 x208 +1 x219 +1 x221 +1 x232 +1 x234 +1 x245 +1 x247 +1 x258 +1 x260 +1 x271 +1 x273 +1 x284 +1 x286 +1 x297 +1 x299 +1 x310 +1 x312 +1 x323 +1 x325 +1 x336 +1 x349 +1 x362 +1 x375 +1 x388 >= 1 ;
-1 x13 -1 x26 -1 x39 -1 x52 -1 x65 -1 x76 -1 x78 -1 x89 -1 x91 -1 x102 -1 x104 -1 x115 -1 x117 -1 x128 -1 x130 -1 x141 -1 x143 -1 x154 -1 x156 -1 x167 -1 x169 -1 x180 -1 x182 -1 x193 -1 x195 -1 x206 -1 x208 -1 x219 -1 x221 -1 x232 -1 x234 -1 x245 -1 x247 -1 x258 -1 x260 -1 x271 -1 x273 -1 x284 -1 x286 -1 x297 -1 x299 -1 x310 -1 x312 -1 x323 -1 x325 -1 x336 -1 x349 -1 x362 -1 x375 -1 x388 -14 x585 >= -15 ;
+1 x13 +1 x15 +1 x26 +1 x28 +1 x41 +1 x43 +1 x54 +1 x56 +1 x69 +1 x82 +1 x84 +1 x97 +1 x110 +1 x112 +1 x123 +1 x125 +1 x138 +1 x140 +1 x151 +1 x153 +1 x166 +1 x179 +1 x181 +1 x192 +1 x194 +1 x207 +1 x209 +1 x220 +1 x222 +1 x235 +1 x248 +1 x250 +1 x261 +1 x263 +1 x276 +1 x278 +1 x289 +1 x291 +1 x304 +1 x317 +1 x319 +1 x332 +1 x345 +1 x347 +1 x358 +1 x360 +1 x373 +1 x375 +1 x386 +1 x388 >= 1 ;
-1 x13 -1 x15 -1 x26 -1 x28 -1 x41 -1 x43 -1 x54 -1 x56 -1 x69 -1 x82 -1 x84 -1 x97 -1 x110 -1 x112 -1 x123 -1 x125 -1 x138 -1 x140 -1 x151 -1 x153 -1 x166 -1 x179 -1 x181 -1 x192 -1 x194 -1 x207 -1 x209 -1 x220 -1 x222 -1 x235 -1 x248 -1 x250 -1 x261 -1 x263 -1 x276 -1 x278 -1 x289 -1 x291 -1 x304 -1 x317 -1 x319 -1 x332 -1 x345 -1 x347 -1 x358 -1 x360 -1 x373 -1 x375 -1 x386 -1 x388 -14 x586 >= -15 ;
+1 x13 +1 x15 +1 x28 +1 x30 +1 x43 +1 x45 +1 x58 +1 x60 +1 x73 +1 x75 +1 x88 +1 x90 +1 x103 +1 x105 +1 x118 +1 x120 +1 x133 +1 x135 +1 x148 +1 x150 +1 x163 +1 x165 +1 x178 +1 x180 +1 x193 +1 x208 +1 x221 +1 x223 +1 x236 +1 x238 +1 x251 +1 x253 +1 x266 +1 x268 +1 x281 +1 x283 +1 x296 +1 x298 +1 x311 +1 x313 +1 x326 +1 x328 +1 x341 +1 x343 +1 x356 +1 x358 +1 x371 +1 x373 +1 x386 +1 x388 >= 1 ;
-1 x13 -1 x15 -1 x28 -1 x30 -1 x43 -1 x45 -1 x58 -1 x60 -1 x73 -1 x75 -1 x88 -1 x90 -1 x103 -1 x105 -1 x118 -1 x120 -1 x133 -1 x135 -1 x148 -1 x150 -1 x163 -1 x165 -1 x178 -1 x180 -1 x193 -1 x208 -1 x221 -1 x223 -1 x236 -1 x238 -1 x251 -1 x253 -1 x266 -1 x268 -1 x281 -1 x283 -1 x296 -1 x298 -1 x311 -1 x313 -1 x326 -1 x328 -1 x341 -1 x343 -1 x356 -1 x358 -1 x371 -1 x373 -1 x386 -1 x388 -14 x587 >= -15 ;
+1 x2 +1 x15 +1 x17 +1 x32 +1 x34 +1 x47 +1 x49 +1 x64 +1 x66 +1 x79 +1 x81 +1 x96 +1 x98 +1 x111 +1 x113 +1 x128 +1 x130 +1 x143 +1 x145 +1 x160 +1 x162 +1 x175 +1 x177 +1 x192 +1 x194 +1 x207 +1 x209 +1 x224 +1 x226 +1 x239 +1 x241 +1 x256 +1 x258 +1 x271 +1 x273 +1 x288 +1 x290 +1 x303 +1 x305 +1 x320 +1 x322 +1 x335 +1 x337 +1 x352 +1 x354 +1 x367 +1 x369 +1 x384 +1 x386 +1 x399 >= 1 ;
-1 x2 -1 x15 -1 x17 -1 x32 -1 x34 -1 x47 -1 x49 -1 x64 -1 x66 -1 x79 -1 x81 -1 x96 -1 x98 -1 x111 -1 x113 -1 x128 -1 x130 -1 x143 -1 x145 -1 x160 -1 x162 -1 x175 -1 x177 -1 x192 -1 x194 -1 x207 -1 x209 -1 x224 -1 x226 -1 x239 -1 x241 -1 x256 -1 x258 -1 x271 -1 x273 -1 x288 -1 x290 -1 x303 -1 x305 -1 x320 -1 x322 -1 x335 -1 x337 -1 x352 -1 x354 -1 x367 -1 x369 -1 x384 -1 x386 -1 x399 -14 x588 >= -15 ;
+1 x2 +1 x17 +1 x19 +1 x34 +1 x36 +1 x51 +1 x53 +1 x68 +1 x70 +1 x85 +1 x87 +1 x89 +1 x104 +1 x106 +1 x121 +1 x123 +1 x138 +1 x140 +1 x155 +1 x157 +1 x159 +1 x174 +1 x176 +1 x191 +1 x193 +1 x208 +1 x210 +1 x225 +1 x227 +1 x242 +1 x244 +1 x246 +1 x261 +1 x263 +1 x278 +1 x280 +1 x295 +1 x297 +1 x312 +1 x314 +1 x316 +1 x331 +1 x333 +1 x348 +1 x350 +1 x365 +1 x367 +1 x382 +1 x384 +1 x399 >= 1 ;
-1 x2 -1 x17 -1 x19 -1 x34 -1 x36 -1 x51 -1 x53 -1 x68 -1 x70 -1 x85 -1 x87 -1 x89 -1 x104 -1 x106 -1 x121 -1 x123 -1 x138 -1 x140 -1 x155 -1 x157 -1 x159 -1 x174 -1 x176 -1 x191 -1 x193 -1 x208 -1 x210 -1 x225 -1 x227 -1 x242 -1 x244 -1 x246 -1 x261 -1 x263 -1 x278 -1 x280 -1 x295 -1 x297 -1 x312 -1 x314 -1 x316 -1 x331 -1 x333 -1 x348 -1 x350 -1 x365 -1 x367 -1 x382 -1 x384 -1 x399 -14 x589 >= -15 ;
+1 x2 +1 x17 +1 x19 +1 x21 +1 x36 +1 x38 +1 x40 +1 x55 +1 x57 +1 x59 +1 x74 +1 x76 +1 x78 +1 x95 +1 x97 +1 x114 +1 x116 +1 x133 +1 x135 +1 x152 +1 x154 +1 x171 +1 x173 +1 x190 +1 x192 +1 x209 +1 x211 +1 x228 +1 x230 +1 x247 +1 x249 +1 x266 +1 x268 +1 x285 +1 x287 +1 x304 +1 x306 +1 x323 +1 x325 +1 x327 +1 x342 +1 x344 +1 x346 +1 x361 +1 x363 +1 x365 +1 x380 +1 x382 +1 x384 +1 x399 >= 1 ;
-1 x2 -1 x17 -1 x19 -1 x21 -1 x36 -1 x38 -1 x40 -1 x55 -1 x57 -1 x59 -1 x74 -1 x76 -1 x78 -1 x95 -1 x97 -1 x114 -1 x116 -1 x133 -1 x135 -1 x152 -1 x154 -1 x171 -1 x173 -1 x190 -1 x192 -1 x209 -1 x211 -1 x228 -1 x230 -1 x247 -1 x249 -1 x266 -1 x268 -1 x285 -1 x287 -1 x304 -1 x306 -1 x323 -1 x325 -1 x327 -1 x342 -1 x344 -1 x346 -1 x361 -1 x363 -1 x365 -1 x380 -1 x382 -1 x384 -1 x399 -14 x590 >= -15 ;
+1 x2 +1 x19 +1 x21 +1 x23 +1 x40 +1 x42 +1 x44 +1 x61 +1 x63 +1 x65 +1 x82 +1 x84 +1 x86 +1 x103 +1 x105 +1 x107 +1 x124 +1 x126 +1 x128 +1 x147 +1 x149 +1 x168 +1 x170 +1 x189 +1 x191 +1 x210 +1 x212 +1 x231 +1 x233 +1 x252 +1 x254 +1 x273 +1 x275 +1 x277 +1 x294 +1 x296 +1 x298 +1 x315 +1 x317 +1 x319 +1 x336 +1 x338 +1 x340 +1 x357 +1 x359 +1 x361 +1 x378 +1 x380 +1 x382 +1 x399 >= 1 ;
-1 x2 -1 x19 -1 x21 -1 x23 -1 x40 -1 x42 -1 x44 -1 x61 -1 x63 -1 x65 -1 x82 -1 x84 -1 x86 -1 x103 -1 x105 -1 x107 -1 x124 -1 x126 -1 x128 -1 x147 -1 x149 -1 x168 -1 x170 -1 x189 -1 x191 -1 x210 -1 x212 -1 x231 -1 x233 -1 x252 -1 x254 -1 x273 -1 x275 -1 x277 -1 x294 -1 x296 -1 x298 -1 x315 -1 x317 -1 x319 -1 x336 -1 x338 -1 x340 -1 x357 -1 x359 -1 x361 -1 x378 -1 x380 -1 x382 -1 x399 -14 x591 >= -15 ;
+1 x2 +1 x21 +1 x23 +1 x25 +1 x46 +1 x48 +1 x50 +1 x69 +1 x71 +1 x73 +1 x92 +1 x94 +1 x96 +1 x115 +1 x117 +1 x119 +1 x140 +1 x142 +1 x144 +1 x163 +1 x165 +1 x167 +1 x186 +1 x188 +1 x190 +1 x211 +1 x213 +1 x215 +1 x234 +1 x236 +1 x238 +1 x257 +1 x259 +1 x261 +1 x282 +1 x284 +1 x286 +1 x305 +1 x307 +1 x309 +1 x328 +1 x330 +1 x332 +1 x351 +1 x353 +1 x355 +1 x376 +1 x378 +1 x380 +1 x399 >= 1 ;
-1 x2 -1 x21 -1 x23 -1 x25 -1 x46 -1 x48 -1 x50 -1 x69 -1 x71 -1 x73 -1 x92 -1 x94 -1 x96 -1 x115 -1 x117 -1 x119 -1 x140 -1 x142 -1 x144 -1 x163 -1 x165 -1 x167 -1 x186 -1 x188 -1 x190 -1 x211 -1 x213 -1 x215 -1 x234 -1 x236 -1 x238 -1 x257 -1 x259 -1 x261 -1 x282 -1 x284 -1 x286 -1 x305 -1 x307 -1 x309 -1 x328 -1 x330 -1 x332 -1 x351 -1 x353 -1 x355 -1 x376 -1 x378 -1 x380 -1 x399 -14 x592 >= -15 ;
+1 x2 +1 x25 +1 x27 +1 x29 +1 x52 +1 x54 +1 x56 +1 x77 +1 x79 +1 x81 +1 x83 +1 x104 +1 x106 +1 x108 +1 x110 +1 x131 +1 x133 +1 x135 +1 x137 +1 x158 +1 x160 +1 x162 +1 x185 +1 x187 +1 x189 +1 x212 +1 x214 +1 x216 +1 x239 +1 x241 +1 x243 +1 x264 +1 x266 +1 x268 +1 x270 +1 x291 +1 x293 +1 x295 +1 x297 +1 x318 +1 x320 +1 x322 +1 x324 +1 x345 +1 x347 +1 x349 +1 x372 +1 x374 +1 x376 +1 x399 >= 1 ;
-1 x2 -1 x25 -1 x27 -1 x29 -1 x52 -1 x54 -1 x56 -1 x77 -1 x79 -1 x81 -1 x83 -1 x104 -1 x106 -1 x108 -1 x110 -1 x131 -1 x133 -1 x135 -1 x137 -1 x158 -1 x160 -1 x162 -1 x185 -1 x187 -1 x189 -1 x212 -1 x214 -1 x216 -1 x239 -1 x241 -1 x243 -1 x264 -1 x266 -1 x268 -1 x270 -1 x291 -1 x293 -1 x295 -1 x297 -1 x318 -1 x320 -1 x322 -1 x324 -1 x345 -1 x347 -1 x349 -1 x372 -1 x374 -1 x376 -1 x399 -14 x593 >= -15 ;
+1 x2 +1 x27 +1 x29 +1 x31 +1 x33 +1 x58 +1 x60 +1 x62 +1 x64 +1 x89 +1 x91 +1 x93 +1 x95 +1 x120 +1 x122 +1 x124 +1 x126 +1 x151 +1 x153 +1 x155 +1 x157 +1 x182 +1 x184 +1 x186 +1 x188 +1 x213 +1 x215 +1 x217 +1 x219 +1 x244 +1 x246 +1 x248 +1 x250 +1 x275 +1 x277 +1 x279 +1 x281 +1 x306 +1 x308 +1 x310 +1 x312 +1 x337 +1 x339 +1 x341 +1 x343 +1 x368 +1 x370 +1 x372 +1 x374 +1 x399 >= 1 ;
-1 x2 -1 x27 -1 x29 -1 x31 -1 x33 -1 x58 -1 x60 -1 x62 -1 x64 -1 x89 -1 x91 -1 x93 -1 x95 -1 x120 -1 x122 -1 x124 -1 x126 -1 x151 -1 x153 -1 x155 -1 x157 -1 x182 -1 x184 -1 x186 -1 x188 -1 x213 -1 x215 -1 x217 -1 x219 -1 x244 -1 x246 -1 x248 -1 x250 -1 x275 -1 x277 -1 x279 -1 x281 -1 x306 -1 x308 -1 x310 -1 x312 -1 x337 -1 x339 -1 x341 -1 x343 -1 x368 -1 x370 -1 x372 -1 x374 -1 x399 -14 x594 >= -15 ;
+1 x2 +1 x4 +1 x33 +1 x35 +1 x37 +1 x39 +1 x41 +1 x70 +1 x72 +1 x74 +1 x76 +1 x105 +1 x107 +1 x109 +1 x111 +1 x113 +1 x142 +1 x144 +1 x146 +1 x148 +1 x150 +1 x179 +1 x181 +1 x183 +1 x185 +1 x216 +1 x218 +1 x220 +1 x222 +1 x251 +1 x253 +1 x255 +1 x257 +1 x259 +1 x288 +1 x290 +1 x292 +1 x294 +1 x296 +1 x325 +1 x327 +1 x329 +1 x331 +1 x360 +1 x362 +1 x364 +1 x366 +1 x368 +1 x397 +1 x399 >= 1 ;
-1 x2 -1 x4 -1 x33 -1 x35 -1 x37 -1 x39 -1 x41 -1 x70 -1 x72 -1 x74 -1 x76 -1 x105 -1 x107 -1 x109 -1 x111 -1 x113 -1 x142 -1 x144 -1 x146 -1 x148 -1 x150 -1 x179 -1 x181 -1 x183 -1 x185 -1 x216 -1 x218 -1 x220 -1 x222 -1 x251 -1 x253 -1 x255 -1 x257 -1 x259 -1 x288 -1 x290 -1 x292 -1 x294 -1 x296 -1 x325 -1 x327 -1 x329 -1 x331 -1 x360 -1 x362 -1 x364 -1 x366 -1 x368 -1 x397 -1 x399 -14 x595 >= -15 ;
+1 x2 +1 x4 +1 x39 +1 x41 +1 x43 +1 x45 +1 x47 +1 x49 +1 x84 +1 x86 +1 x88 +1 x90 +1 x92 +1 x94 +1 x129 +1 x131 +1 x133 +1 x135 +1 x137 +1 x139 +1 x174 +1 x176 +1 x178 +1 x180 +1 x182 +1 x219 +1 x221 +1 x223 +1 x225 +1 x227 +1 x262 +1 x264 +1 x266 +1 x268 +1 x270 +1 x272 +1 x307 +1 x309 +1 x311 +1 x313 +1 x315 +1 x317 +1 x352 +1 x354 +1 x356 +1 x358 +1 x360 +1 x362 +1 x397 +1 x399 >= 1 ;
-1 x2 -1 x4 -1 x39 -1 x41 -1 x43 -1 x45 -1 x47 -1 x49 -1 x84 -1 x86 -1 x88 -1 x90 -1 x92 -1 x94 -1 x129 -1 x131 -1 x133 -1 x135 -1 x137 -1 x139 -1 x174 -1 x176 -1 x178 -1 x180 -1 x182 -1 x219 -1 x221 -1 x223 -1 x225 -1 x227 -1 x262 -1 x264 -1 x266 -1 x268 -1 x270 -1 x272 -1 x307 -1 x309 -1 x311 -1 x313 -1 x315 -1 x317 -1 x352 -1 x354 -1 x356 -1 x358 -1 x360 -1 x362 -1 x397 -1 x399 -14 x596 >= -15 ;
+1 x2 +1 x4 +1 x6 +1 x51 +1 x53 +1 x55 +1 x57 +1 x59 +1 x61 +1 x63 +1 x108 +1 x110 +1 x112 +1 x114 +1 x116 +1 x118 +1 x120 +1 x165 +1 x167 +1 x169 +1 x171 +1 x173 +1 x175 +1 x177 +1 x179 +1 x222 +1 x224 +1 x226 +1 x228 +1 x230 +1 x232 +1 x234 +1 x236 +1 x281 +1 x283 +1 x285 +1 x287 +1 x289 +1 x291 +1 x293 +1 x338 +1 x340 +1 x342 +1 x344 +1 x346 +1 x348 +1 x350 +1 x395 +1 x397 +1 x399 >= 1 ;
-1 x2 -1 x4 -1 x6 -1 x51 -1 x53 -1 x55 -1 x57 -1 x59 -1 x61 -1 x63 -1 x108 -1 x110 -1 x112 -1 x114 -1 x116 -1 x118 -1 x120 -1 x165 -1 x167 -1 x169 -1 x171 -1 x173 -1 x175 -1 x177 -1 x179 -1 x222 -1 x224 -1 x226 -1 x228 -1 x230 -1 x232 -1 x234 -1 x236 -1 x281 -1 x283 -1 x285 -1 x287 -1 x289 -1 x291 -1 x293 -1 x338 -1 x340 -1 x342 -1 x344 -1 x346 -1 x348 -1 x350 -1 x395 -1 x397 -1 x399 -14 x597 >= -15 ;
+1 x2 +1 x4 +1 x6 +1 x8 +1 x10 +1 x71 +1 x73 +1 x75 +1 x77 +1 x79 +1 x81 +1 x83 +1 x85 +1 x87 +1 x89 +1 x152 +1 x154 +1 x156 +1 x158 +1 x160 +1 x162 +1 x164 +1 x166 +1 x168 +1 x170 +1 x231 +1 x233 +1 x235 +1 x237 +1 x239 +1 x241 +1 x243 +1 x245 +1 x247 +1 x249 +1 x312 +1 x314 +1 x316 +1 x318 +1 x320 +1 x322 +1 x324 +1 x326 +1 x328 +1 x330 +1 x391 +1 x393 +1 x395 +1 x397 +1 x399 >= 1 ;
-1 x2 -1 x4 -1 x6 -1 x8 -1 x10 -1 x71 -1 x73 -1 x75 -1 x77 -1 x79 -1 x81 -1 x83 -1 x85 -1 x87 -1 x89 -1 x152 -1 x154 -1 x156 -1 x158 -1 x160 -1 x162 -1 x164 -1 x166 -1 x168 -1 x170 -1 x231 -1 x233 -1 x235 -1 x237 -1 x239 -1 x241 -1 x243 -1 x245 -1 x247 -1 x249 -1 x312 -1 x314 -1 x316 -1 x318 -1 x320 -1 x322 -1 x324 -1 x326 -1 x328 -1 x330 -1 x391 -1 x393 -1 x395 -1 x397 -1 x399 -14 x598 >= -15 ;
+1 x2 +1 x4 +1 x6 +1 x8 +1 x10 +1 x12 +1 x14 +1 x16 +1 x117 +1 x119 +1 x121 +1 x123 +1 x125 +1 x127 +1 x129 +1 x131 +1 x133 +1 x135 +1 x137 +1 x139 +1 x141 +1 x143 +1 x145 +1 x147 +1 x149 +1 x252 +1 x254 +1 x256 +1 x258 +1 x260 +1 x262 +1 x264 +1 x266 +1 x268 +1 x270 +1 x272 +1 x274 +1 x276 +1 x278 +1 x280 +1 x282 +1 x284 +1 x385 +1 x387 +1 x389 +1 x391 +1 x393 +1 x395 +1 x397 +1 x399 >= 1 ;
-1 x2 -1 x4 -1 x6 -1 x8 -1 x10 -1 x12 -1 x14 -1 x16 -1 x117 -1 x119 -1 x121 -1 x123 -1 x125 -1 x127 -1 x129 -1 x131 -1 x133 -1 x135 -1 x137 -1 x139 -1 x141 -1 x143 -1 x145 -1 x147 -1 x149 -1 x252 -1 x254 -1 x256 -1 x258 -1 x260 -1 x262 -1 x264 -1 x266 -1 x268 -1 x270 -1 x272 -1 x274 -1 x276 -1 x278 -1 x280 -1 x282 -1 x284 -1 x385 -1 x387 -1 x389 -1 x391 -1 x393 -1 x395 -1 x397 -1 x399 -14 x599 >= -15 ;
+1 x2 +1 x4 +1 x6 +1 x8 +1 x10 +1 x12 +1 x14 +1 x16 +1 x18 +1 x20 +1 x22 +1 x24 +1 x26 +1 x28 +1 x30 +1 x32 +1 x34 +1 x36 +1 x38 +1 x40 +1 x42 +1 x44 +1 x46 +1 x48 +1 x50 +1 x351 +1 x353 +1 x355 +1 x357 +1 x359 +1 x361 +1 x363 +1 x365 +1 x367 +1 x369 +1 x371 +1 x373 +1 x375 +1 x377 +1 x379 +1 x381 +1 x383 +1 x385 +1 x387 +1 x389 +1 x391 +1 x393 +1 x395 +1 x397 +1 x399 >= 1 ;
-1 x2 -1 x4 -1 x6 -1 x8 -1 x10 -1 x12 -1 x14 -1 x16 -1 x18 -1 x20 -1 x22 -1 x24 -1 x26 -1 x28 -1 x30 -1 x32 -1 x34 -1 x36 -1 x38 -1 x40 -1 x42 -1 x44 -1 x46 -1 x48 -1 x50 -1 x351 -1 x353 -1 x355 -1 x357 -1 x359 -1 x361 -1 x363 -1 x365 -1 x367 -1 x369 -1 x371 -1 x373 -1 x375 -1 x377 -1 x379 -1 x381 -1 x383 -1 x385 -1 x387 -1 x389 -1 x391 -1 x393 -1 x395 -1 x397 -1 x399 -14 x600 >= -15 ;
+1 x401 +1 x402 +1 x403 +1 x404 +1 x405 +1 x406 +1 x407 +1 x408 +1 x409 +1 x410 +1 x411 +1 x412 +1 x413 +1 x414 +1 x415 +1 x416 +1 x417 +1 x418 +1 x419 +1 x420 +1 x421 +1 x422 +1 x423 +1 x424 +1 x425 -1 x1 -1 x400 >= 0 ;
+1 x401 +1 x402 +1 x403 +1 x404 +1 x405 +1 x406 +1 x407 +1 x408 +1 x409 +1 x410 +1 x411 +1 x412 +1 x588 +1 x589 +1 x590 +1 x591 +1 x592 +1 x593 +1 x594 +1 x595 +1 x596 +1 x597 +1 x598 +1 x599 +1 x600 -1 x2 -1 x399 >= 0 ;
+1 x401 +1 x402 +1 x403 +1 x404 +1 x405 +1 x406 +1 x407 +1 x408 +1 x526 +1 x527 +1 x528 +1 x529 +1 x530 +1 x531 +1 x532 +1 x533 +1 x534 +1 x535 +1 x536 +1 x537 +1 x538 +1 x539 +1 x540 +1 x541 +1 x542 -1 x3 -1 x398 >= 0 ;
+1 x401 +1 x402 +1 x403 +1 x404 +1 x405 +1 x406 +1 x494 +1 x495 +1 x496 +1 x497 +1 x498 +1 x499 +1 x500 +1 x501 +1 x502 +1 x503 +1 x504 +1 x505 +1 x506 +1 x595 +1 x596 +1 x597 +1 x598 +1 x599 +1 x600 -1 x4 -1 x397 >= 0 ;
+1 x401 +1 x402 +1 x403 +1 x404 +1 x405 +1 x476 +1 x477 +1 x478 +1 x479 +1 x480 +1 x481 +1 x482 +1 x483 +1 x484 +1 x485 +1 x556 +1 x557 +1 x558 +1 x559 +1 x560 +1 x561 +1 x562 +1 x563 +1 x564 +1 x565 -1 x5 -1 x396 >= 0 ;
+1 x401 +1 x402 +1 x403 +1 x404 +1 x463 +1 x464 +1 x465 +1 x466 +1 x467 +1 x468 +1 x469 +1 x470 +1 x471 +1 x530 +1 x531 +1 x532 +1 x533 +1 x534 +1 x535 +1 x536 +1 x537 +1 x597 +1 x598 +1 x599 +1 x600 -1 x6 -1 x395 >= 0 ;
+1 x401 +1 x402 +1 x403 +1 x454 +1 x455 +1 x456 +1 x457 +1 x458 +1 x459 +1 x460 +1 x511 +1 x512 +1 x513 +1 x514 +1 x515 +1 x516 +1 x517 +1 x518 +1 x569 +1 x570 +1 x571 +1 x572 +1 x573 +1 x574 +1 x575 -1 x7 -1 x394 >= 0 ;
+1 x401 +1 x402 +1 x403 +1 x447 +1 x448 +1 x449 +1 x450 +1 x451 +1 x452 +1 x453 +1 x498 +1 x499 +1 x500 +1 x501 +1 x502 +1 x503 +1 x548 +1 x549 +1 x550 +1 x551 +1 x552 +1 x553 +1 x598 +1 x599 +1 x600 -1 x8 -1 x393 >= 0 ;
+1 x401 +1 x402 +1 x442 +1 x443 +1 x444 +1 x445 +1 x446 +1 x447 +1 x487 +1 x488 +1 x489 +1 x490 +1 x491 +1 x531 +1 x532 +1 x533 +1 x534 +1 x535 +1 x536 +1 x576 +1 x577 +1 x578 +1 x579 +1 x580 +1 x581 -1 x9 -1 x392 >= 0 ;
+1 x401 +1 x402 +1 x438 +1 x439 +1 x440 +1 x441 +1 x442 +1 x478 +1 x479 +1 x480 +1 x481 +1 x482 +1 x518 +1 x519 +1 x520 +1 x521 +1 x522 +1 x558 +1 x559 +1 x560 +1 x561 +1 x562 +1 x598 +1 x599 +1 x600 -1 x10 -1 x391 >= 0 ;
+1 x401 +1 x402 +1 x435 +1 x436 +1 x437 +1 x438 +1 x471 +1 x472 +1 x473 +1 x474 +1 x475 +1 x508 +1 x509 +1 x510 +1 x511 +1 x544 +1 x545 +1 x546 +1 x547 +1 x548 +1 x580 +1 x581 +1 x582 +1 x583 +1 x584 -1 x11 -1 x390 >= 0 ;
+1 x401 +1 x402 +1 x432 +1 x433 +1 x434 +1 x435 +1 x465 +1 x466 +1 x467 +1 x468 +1 x499 +1 x500 +1 x501 +1 x502 +1 x532 +1 x533 +1 x534 +1 x535 +1 x565 +1 x566 +1 x567 +1 x568 +1 x569 +1 x599 +1 x600 -1 x12 -1 x389 >= 0 ;
+1 x401 +1 x429 +1 x430 +1 x431 +1 x432 +1 x460 +1 x461 +1 x462 +1 x463 +1 x491 +1 x492 +1 x493 +1 x494 +1 x522 +1 x523 +1 x524 +1 x525 +1 x553 +1 x554 +1 x555 +1 x556 +1 x584 +1 x585 +1 x586 +1 x587 -1 x13 -1 x388 >= 0 ;
+1 x401 +1 x427 +1 x428 +1 x429 +1 x430 +1 x456 +1 x457 +1 x458 +1 x459 +1 x485 +1 x486 +1 x487 +1 x513 +1 x514 +1 x515 +1 x516 +1 x542 +1 x543 +1 x544 +1 x545 +1 x571 +1 x572 +1 x573 +1 x599 +1 x600 -1 x14 -1 x387 >= 0 ;
+1 x401 +1 x426 +1 x427 +1 x428 +1 x452 +1 x453 +1 x454 +1 x455 +1 x479 +1 x480 +1 x481 +1 x506 +1 x507 +1 x508 +1 x532 +1 x533 +1 x534 +1 x535 +1 x559 +1 x560 +1 x561 +1 x562 +1 x586 +1 x587 +1 x588 -1 x15 -1 x386 >= 0 ;
+1 x401 +1 x424 +1 x425 +1 x426 +1 x449 +1 x450 +1 x451 +1 x474 +1 x475 +1 x476 +1 x499 +1 x500 +1 x501 +1 x524 +1 x525 +1 x526 +1 x549 +1 x550 +1 x551 +1 x574 +1 x575 +1 x576 +1 x577 +1 x599 +1 x600 -1 x16 -1 x385 >= 0 ;
+1 x401 +1 x423 +1 x424 +1 x425 +1 x446 +1 x447 +1 x448 +1 x470 +1 x471 +1 x472 +1 x493 +1 x494 +1 x495 +1 x517 +1 x518 +1 x519 +1 x541 +1 x542 +1 x543 +1 x564 +1 x565 +1 x566 +1 x588 +1 x589 +1 x590 -1 x17 -1 x384 >= 0 ;
+1 x401 +1 x421 +1 x422 +1 x423 +1 x444 +1 x445 +1 x466 +1 x467 +1 x468 +1 x488 +1 x489 +1 x490 +1 x510 +1 x511 +1 x512 +1 x533 +1 x534 +1 x535 +1 x555 +1 x556 +1 x557 +1 x577 +1 x578 +1 x579 +1 x600 -1 x18 -1 x383 >= 0 ;
+1 x401 +1 x420 +1 x421 +1 x422 +1 x441 +1 x442 +1 x443 +1 x462 +1 x463 +1 x464 +1 x484 +1 x485 +1 x505 +1 x506 +1 x526 +1 x527 +1 x547 +1 x548 +1 x549 +1 x568 +1 x569 +1 x570 +1 x589 +1 x590 +1 x591 -1 x19 -1 x382 >= 0 ;
+1 x401 +1 x419 +1 x420 +1 x421 +1 x439 +1 x440 +1 x441 +1 x459 +1 x460 +1 x461 +1 x479 +1 x480 +1 x481 +1 x499 +1 x500 +1 x501 +1 x520 +1 x521 +1 x540 +1 x541 +1 x560 +1 x561 +1 x580 +1 x581 +1 x600 -1 x20 -1 x381 >= 0 ;
+1 x401 +1 x418 +1 x419 +1 x420 +1 x437 +1 x438 +1 x439 +1 x457 +1 x458 +1 x476 +1 x477 +1 x495 +1 x496 +1 x514 +1 x515 +1 x533 +1 x534 +1 x552 +1 x553 +1 x571 +1 x572 +1 x573 +1 x590 +1 x591 +1 x592 -1 x21 -1 x380 >= 0 ;
+1 x401 +1 x418 +1 x419 +1 x436 +1 x437 +1 x454 +1 x455 +1 x472 +1 x473 +1 x474 +1 x490 +1 x491 +1 x492 +1 x509 +1 x510 +1 x527 +1 x528 +1 x545 +1 x546 +1 x563 +1 x564 +1 x565 +1 x582 +1 x583 +1 x600 -1 x22 -1 x379 >= 0 ;
+1 x401 +1 x417 +1 x418 +1 x434 +1 x435 +1 x452 +1 x453 +1 x469 +1 x470 +1 x487 +1 x488 +1 x504 +1 x505 +1 x521 +1 x522 +1 x523 +1 x539 +1 x540 +1 x556 +1 x557 +1 x558 +1 x574 +1 x575 +1 x591 +1 x592 -1 x23 -1 x378 >= 0 ;
+1 x401 +1 x416 +1 x417 +1 x433 +1 x434 +1 x450 +1 x451 +1 x466 +1 x467 +1 x483 +1 x484 +1 x500 +1 x501 +1 x516 +1 x517 +1 x518 +1 x533 +1 x534 +1 x550 +1 x551 +1 x567 +1 x568 +1 x583 +1 x584 +1 x600 -1 x24 -1 x377 >= 0 ;
+1 x401 +1 x416 +1 x417 +1 x432 +1 x433 +1 x448 +1 x449 +1 x464 +1 x465 +1 x480 +1 x481 +1 x496 +1 x497 +1 x512 +1 x513 +1 x528 +1 x529 +1 x544 +1 x545 +1 x560 +1 x561 +1 x576 +1 x577 +1 x592 +1 x593 -1 x25 -1 x376 >= 0 ;
+1 x415 +1 x416 +1 x430 +1 x431 +1 x446 +1 x447 +1 x461 +1 x462 +1 x477 +1 x478 +1 x492 +1 x493 +1 x507 +1 x508 +1 x523 +1 x524 +1 x538 +1 x539 +1 x554 +1 x555 +1 x569 +1 x570 +1 x585 +1 x586 +1 x600 -1 x26 -1 x375 >= 0 ;
+1 x414 +1 x415 +1 x429 +1 x430 +1 x444 +1 x445 +1 x459 +1 x460 +1 x474 +1 x475 +1 x489 +1 x490 +1 x504 +1 x518 +1 x519 +1 x533 +1 x534 +1 x548 +1 x549 +1 x563 +1 x564 +1 x578 +1 x579 +1 x593 +1 x594 -1 x27 -1 x374 >= 0 ;
+1 x414 +1 x415 +1 x428 +1 x429 +1 x443 +1 x457 +1 x458 +1 x471 +1 x472 +1 x486 +1 x500 +1 x501 +1 x514 +1 x515 +1 x528 +1 x529 +1 x543 +1 x544 +1 x557 +1 x558 +1 x571 +1 x572 +1 x586 +1 x587 +1 x600 -1 x28 -1 x373 >= 0 ;
+1 x413 +1 x414 +1 x427 +1 x428 +1 x441 +1 x442 +1 x455 +1 x456 +1 x469 +1 x470 +1 x483 +1 x496 +1 x497 +1 x510 +1 x511 +1 x524 +1 x525 +1 x538 +1 x539 +1 x552 +1 x566 +1 x579 +1 x580 +1 x593 +1 x594 -1 x29 -1 x372 >= 0 ;
+1 x413 +1 x414 +1 x426 +1 x427 +1 x440 +1 x453 +1 x454 +1 x466 +1 x467 +1 x480 +1 x481 +1 x493 +1 x494 +1 x507 +1 x520 +1 x521 +1 x533 +1 x534 +1 x547 +1 x560 +1 x561 +1 x573 +1 x574 +1 x587 +1 x600 -1 x30 -1 x371 >= 0 ;
+1 x413 +1 x426 +1 x438 +1 x439 +1 x451 +1 x452 +1 x464 +1 x465 +1 x477 +1 x478 +1 x490 +1 x491 +1 x503 +1 x504 +1 x516 +1 x517 +1 x529 +1 x530 +1 x542 +1 x543 +1 x555 +1 x556 +1 x568 +1 x581 +1 x594 -1 x31 -1 x370 >= 0 ;
+1 x412 +1 x413 +1 x425 +1 x437 +1 x438 +1 x450 +1 x462 +1 x463 +1 x475 +1 x487 +1 x488 +1 x500 +1 x501 +1 x512 +1 x513 +1 x525 +1 x526 +1 x538 +1 x550 +1 x551 +1 x563 +1 x575 +1 x576 +1 x588 +1 x600 -1 x32 -1 x369 >= 0 ;
+1 x412 +1 x424 +1 x425 +1 x436 +1 x437 +1 x448 +1 x449 +1 x460 +1 x461 +1 x473 +1 x485 +1 x497 +1 x509 +1 x510 +1 x521 +1 x522 +1 x533 +1 x534 +1 x546 +1 x558 +1 x570 +1 x582 +1 x583 +1 x594 +1 x595 -1 x33 -1 x368 >= 0 ;
+1 x412 +1 x423 +1 x424 +1 x435 +1 x436 +1 x447 +1 x459 +1 x471 +1 x482 +1 x483 +1 x494 +1 x495 +1 x506 +1 x518 +1 x529 +1 x530 +1 x541 +1 x542 +1 x553 +1 x554 +1 x565 +1 x577 +1 x588 +1 x589 +1 x600 -1 x34 -1 x367 >= 0 ;
+1 x411 +1 x412 +1 x423 +1 x434 +1 x435 +1 x446 +1 x457 +1 x458 +1 x469 +1 x480 +1 x491 +1 x492 +1 x503 +1 x514 +1 x515 +1 x526 +1 x537 +1 x538 +1 x549 +1 x560 +1 x561 +1 x572 +1 x583 +1 x584 +1 x595 -1 x35 -1 x366 >= 0 ;
+1 x411 +1 x422 +1 x433 +1 x434 +1 x444 +1 x445 +1 x455 +1 x456 +1 x467 +1 x478 +1 x489 +1 x500 +1 x511 +1 x512 +1 x522 +1 x523 +1 x533 +1 x534 +1 x545 +1 x556 +1 x567 +1 x578 +1 x589 +1 x590 +1 x600 -1 x36 -1 x365 >= 0 ;
+1 x411 +1 x421 +1 x422 +1 x432 +1 x433 +1 x443 +1 x444 +1 x454 +1 x465 +1 x476 +1 x487 +1 x497 +1 x498 +1 x508 +1 x509 +1 x519 +1 x530 +1 x541 +1 x552 +1 x562 +1 x563 +1 x573 +1 x574 +1 x584 +1 x595 -1 x37 -1 x364 >= 0 ;
+1 x410 +1 x411 +1 x421 +1 x431 +1 x432 +1 x442 +1 x453 +1 x463 +1 x474 +1 x484 +1 x485 +1 x495 +1 x505 +1 x506 +1 x516 +1 x526 +1 x527 +1 x537 +1 x548 +1 x558 +1 x569 +1 x579 +1 x580 +1 x590 +1 x600 -1 x38 -1 x363 >= 0 ;
+1 x410 +1 x420 +1 x421 +1 x431 +1 x441 +1 x451 +1 x452 +1 x462 +1 x472 +1 x482 +1 x492 +1 x493 +1 x503 +1 x513 +1 x523 +1 x524 +1 x534 +1 x544 +1 x554 +1 x564 +1 x565 +1 x575 +1 x585 +1 x595 +1 x596 -1 x39 -1 x362 >= 0 ;
+1 x410 +1 x420 +1 x430 +1 x440 +1 x450 +1 x460 +1 x470 +1 x480 +1 x490 +1 x500 +1 x510 +1 x520 +1 x530 +1 x540 +1 x550 +1 x551 +1 x560 +1 x561 +1 x570 +1 x571 +1 x580 +1 x581 +1 x590 +1 x591 +1 x600 -1 x40 -1 x361 >= 0 ;
+1 x410 +1 x419 +1 x420 +1 x429 +1 x439 +1 x449 +1 x459 +1 x468 +1 x469 +1 x478 +1 x488 +1 x498 +1 x507 +1 x508 +1 x517 +1 x527 +1 x537 +1 x547 +1 x556 +1 x557 +1 x566 +1 x576 +1 x586 +1 x595 +1 x596 -1 x41 -1 x360 >= 0 ;
+1 x409 +1 x410 +1 x419 +1 x429 +1 x438 +1 x448 +1 x457 +1 x467 +1 x476 +1 x486 +1 x495 +1 x496 +1 x505 +1 x514 +1 x515 +1 x524 +1 x534 +1 x543 +1 x553 +1 x562 +1 x572 +1 x581 +1 x582 +1 x591 +1 x600 -1 x42 -1 x359 >= 0 ;
+1 x409 +1 x419 +1 x428 +1 x437 +1 x447 +1 x456 +1 x465 +1 x475 +1 x484 +1 x493 +1 x502 +1 x503 +1 x512 +1 x521 +1 x530 +1 x531 +1 x540 +1 x549 +1 x558 +1 x559 +1 x568 +1 x577 +1 x586 +1 x587 +1 x596 -1 x43 -1 x358 >= 0 ;
+1 x409 +1 x418 +1 x427 +1 x436 +1 x437 +1 x445 +1 x446 +1 x455 +1 x464 +1 x473 +1 x482 +1 x491 +1 x500 +1 x509 +1 x518 +1 x519 +1 x528 +1 x537 +1 x546 +1 x555 +1 x564 +1 x573 +1 x582 +1 x591 +1 x600 -1 x44 -1 x357 >= 0 ;
+1 x409 +1 x418 +1 x427 +1 x436 +1 x444 +1 x445 +1 x453 +1 x454 +1 x462 +1 x471 +1 x480 +1 x489 +1 x498 +1 x507 +1 x516 +1 x525 +1 x534 +1 x543 +1 x551 +1 x552 +1 x560 +1 x569 +1 x578 +1 x587 +1 x596 -1 x45 -1 x356 >= 0 ;
+1 x409 +1 x417 +1 x426 +1 x435 +1 x444 +1 x452 +1 x461 +1 x470 +1 x478 +1 x479 +1 x487 +1 x496 +1 x505 +1 x513 +1 x522 +1 x531 +1 x539 +1 x540 +1 x548 +1 x557 +1 x566 +1 x574 +1 x583 +1 x592 +1 x600 -1 x46 -1 x355 >= 0 ;
+1 x408 +1 x409 +1 x417 +1 x426 +1 x434 +1 x443 +1 x451 +1 x460 +1 x468 +1 x477 +1 x485 +1 x494 +1 x502 +1 x511 +1 x519 +1 x528 +1 x536 +1 x537 +1 x545 +1 x554 +1 x562 +1 x571 +1 x579 +1 x588 +1 x596 -1 x47 -1 x354 >= 0 ;
+1 x408 +1 x417 +1 x425 +1 x433 +1 x442 +1 x450 +1 x458 +1 x459 +1 x467 +1 x475 +1 x484 +1 x492 +1 x500 +1 x509 +1 x517 +1 x525 +1 x534 +1 x542 +1 x550 +1 x559 +1 x567 +1 x575 +1 x584 +1 x592 +1 x600 -1 x48 -1 x353 >= 0 ;
+1 x408 +1 x416 +1 x425 +1 x433 +1 x441 +1 x449 +1 x457 +1 x465 +1 x474 +1 x482 +1 x490 +1 x498 +1 x506 +1 x515 +1 x523 +1 x531 +1 x539 +1 x547 +1 x555 +1 x556 +1 x564 +1 x572 +1 x580 +1 x588 +1 x596 -1 x49 -1 x352 >= 0 ;
+1 x408 +1 x416 +1 x424 +1 x432 +1 x440 +1 x448 +1 x456 +1 x464 +1 x472 +1 x480 +1 x488 +1 x496 +1 x504 +1 x512 +1 x520 +1 x528 +1 x536 +1 x544 +1 x552 +1 x560 +1 x568 +1 x576 +1 x584 +1 x592 +1 x600 -1 x50 -1 x351 >= 0 ;
+1 x408 +1 x416 +1 x424 +1 x431 +1 x439 +1 x447 +1 x455 +1 x463 +1 x471 +1 x479 +1 x486 +1 x494 +1 x502 +1 x510 +1 x518 +1 x526 +1 x534 +1 x542 +1 x549 +1 x557 +1 x565 +1 x573 +1 x581 +1 x589 +1 x597 -1 x51 -1 x350 >= 0 ;
+1 x408 +1 x415 +1 x423 +1 x431 +1 x439 +1 x446 +1 x454 +1 x462 +1 x469 +1 x477 +1 x485 +1 x493 +1 x500 +1 x508 +1 x516 +1 x523 +1 x531 +1 x539 +1 x547 +1 x554 +1 x562 +1 x570 +1 x577 +1 x585 +1 x593 -1 x52 -1 x349 >= 0 ;
+1 x408 +1 x415 +1 x423 +1 x430 +1 x438 +1 x445 +1 x453 +1 x461 +1 x468 +1 x476 +1 x483 +1 x491 +1 x498 +1 x506 +1 x521 +1 x529 +1 x536 +1 x544 +1 x551 +1 x559 +1 x566 +1 x574 +1 x582 +1 x589 +1 x597 -1 x53 -1 x348 >= 0 ;
+1 x407 +1 x415 +1 x422 +1 x430 +1 x437 +1 x445 +1 x452 +1 x459 +1 x467 +1 x474 +1 x482 +1 x489 +1 x497 +1 x504 +1 x511 +1 x519 +1 x526 +1 x534 +1 x541 +1 x556 +1 x563 +1 x571 +1 x578 +1 x586 +1 x593 -1 x54 -1 x347 >= 0 ;
+1 x407 +1 x415 +1 x422 +1 x429 +1 x436 +1 x444 +1 x451 +1 x458 +1 x466 +1 x473 +1 x480 +1 x495 +1 x502 +1 x509 +1 x517 +1 x524 +1 x531 +1 x546 +1 x553 +1 x560 +1 x568 +1 x575 +1 x582 +1 x590 +1 x597 -1 x55 -1 x346 >= 0 ;
+1 x407 +1 x414 +1 x429 +1 x436 +1 x443 +1 x450 +1 x457 +1 x464 +1 x472 +1 x479 +1 x486 +1 x493 +1 x500 +1 x507 +1 x515 +1 x522 +1 x529 +1 x536 +1 x543 +1 x550 +1 x565 +1 x572 +1 x579 +1 x586 +1 x593 -1 x56 -1 x345 >= 0 ;
+1 x407 +1 x414 +1 x421 +1 x428 +1 x435 +1 x442 +1 x449 +1 x456 +1 x463 +1 x470 +1 x477 +1 x484 +1 x513 +1 x520 +1 x527 +1 x534 +1 x541 +1 x548 +1 x555 +1 x562 +1 x569 +1 x576 +1 x583 +1 x590 +1 x597 -1 x57 -1 x344 >= 0 ;
+1 x407 +1 x414 +1 x421 +1 x428 +1 x435 +1 x448 +1 x455 +1 x462 +1 x469 +1 x476 +1 x483 +1 x490 +1 x497 +1 x504 +1 x511 +1 x531 +1 x538 +1 x545 +1 x552 +1 x559 +1 x566 +1 x573 +1 x580 +1 x587 +1 x594 -1 x58 -1 x343 >= 0 ;
+1 x407 +1 x414 +1 x420 +1 x427 +1 x434 +1 x441 +1 x448 +1 x454 +1 x461 +1 x468 +1 x475 +1 x488 +1 x495 +1 x502 +1 x509 +1 x522 +1 x529 +1 x536 +1 x543 +1 x556 +1 x563 +1 x570 +1 x577 +1 x590 +1 x597 -1 x59 -1 x342 >= 0 ;
+1 x407 +1 x413 +1 x420 +1 x427 +1 x433 +1 x440 +1 x447 +1 x460 +1 x467 +1 x480 +1 x487 +1 x500 +1 x507 +1 x514 +1 x520 +1 x527 +1 x534 +1 x540 +1 x547 +1 x554 +1 x560 +1 x567 +1 x574 +1 x587 +1 x594 -1 x60 -1 x341 >= 0 ;
+1 x413 +1 x420 +1 x426 +1 x433 +1 x446 +1 x453 +1 x459 +1 x466 +1 x472 +1 x479 +1 x492 +1 x499 +1 x505 +1 x512 +1 x518 +1 x525 +1 x538 +1 x545 +1 x551 +1 x558 +1 x564 +1 x571 +1 x584 +1 x591 +1 x597 -1 x61 -1 x340 >= 0 ;
+1 x413 +1 x419 +1 x426 +1 x432 +1 x439 +1 x445 +1 x452 +1 x458 +1 x465 +1 x471 +1 x478 +1 x484 +1 x497 +1 x510 +1 x523 +1 x529 +1 x536 +1 x542 +1 x549 +1 x555 +1 x562 +1 x568 +1 x575 +1 x581 +1 x594 -1 x62 -1 x339 >= 0 ;
+1 x406 +1 x413 +1 x419 +1 x432 +1 x438 +1 x451 +1 x457 +1 x464 +1 x470 +1 x476 +1 x483 +1 x489 +1 x502 +1 x508 +1 x521 +1 x527 +1 x534 +1 x540 +1 x546 +1 x553 +1 x559 +1 x572 +1 x578 +1 x591 +1 x597 -1 x63 -1 x338 >= 0 ;
+1 x406 +1 x419 +1 x425 +1 x431 +1 x444 +1 x450 +1 x456 +1 x463 +1 x469 +1 x475 +1 x488 +1 x494 +1 x500 +1 x513 +1 x519 +1 x525 +1 x538 +1 x544 +1 x550 +1 x557 +1 x563 +1 x569 +1 x582 +1 x588 +1 x594 -1 x64 -1 x337 >= 0 ;
+1 x406 +1 x412 +1 x425 +1 x431 +1 x437 +1 x443 +1 x449 +1 x462 +1 x468 +1 x474 +1 x480 +1 x486 +1 x499 +1 x505 +1 x511 +1 x517 +1 x523 +1 x536 +1 x542 +1 x548 +1 x554 +1 x573 +1 x579 +1 x585 +1 x591 -1 x65 -1 x336 >= 0 ;
+1 x406 +1 x412 +1 x418 +1 x424 +1 x430 +1 x455 +1 x461 +1 x467 +1 x473 +1 x479 +1 x485 +1 x491 +1 x497 +1 x503 +1 x509 +1 x534 +1 x540 +1 x546 +1 x552 +1 x558 +1 x564 +1 x570 +1 x576 +1 x582 +1 x588 -1 x66 -1 x335 >= 0 ;
+1 x406 +1 x412 +1 x418 +1 x424 +1 x430 +1 x436 +1 x442 +1 x448 +1 x454 +1 x460 +1 x466 +1 x472 +1 x478 +1 x484 +1 x490 +1 x496 +1 x502 +1 x508 +1 x514 +1 x520 +1 x526 +1 x532 +1 x538 +1 x544 +1 x550 -1 x67 -1 x334 >= 0 ;
+1 x406 +1 x412 +1 x418 +1 x441 +1 x447 +1 x453 +1 x459 +1 x465 +1 x471 +1 x477 +1 x494 +1 x500 +1 x506 +1 x512 +1 x518 +1 x524 +1 x530 +1 x536 +1 x553 +1 x559 +1 x565 +1 x571 +1 x577 +1 x583 +1 x589 -1 x68 -1 x333 >= 0 ;
+1 x406 +1 x423 +1 x429 +1 x435 +1 x441 +1 x452 +1 x458 +1 x464 +1 x470 +1 x481 +1 x487 +1 x493 +1 x499 +1 x516 +1 x522 +1 x528 +1 x534 +1 x545 +1 x551 +1 x557 +1 x563 +1 x574 +1 x580 +1 x586 +1 x592 -1 x69 -1 x332 >= 0 ;
+1 x406 +1 x417 +1 x423 +1 x429 +1 x440 +1 x446 +1 x457 +1 x463 +1 x469 +1 x480 +1 x486 +1 x492 +1 x503 +1 x509 +1 x520 +1 x526 +1 x532 +1 x543 +1 x549 +1 x555 +1 x566 +1 x572 +1 x583 +1 x589 +1 x595 -1 x70 -1 x331 >= 0 ;
+1 x406 +1 x411 +1 x417 +1 x428 +1 x434 +1 x445 +1 x451 +1 x462 +1 x468 +1 x479 +1 x485 +1 x496 +1 x502 +1 x507 +1 x513 +1 x524 +1 x530 +1 x541 +1 x547 +1 x558 +1 x564 +1 x575 +1 x581 +1 x592 +1 x598 -1 x71 -1 x330 >= 0 ;
+1 x411 +1 x417 +1 x422 +1 x428 +1 x439 +1 x450 +1 x456 +1 x461 +1 x467 +1 x478 +1 x489 +1 x495 +1 x500 +1 x506 +1 x517 +1 x528 +1 x534 +1 x539 +1 x545 +1 x556 +1 x567 +1 x573 +1 x578 +1 x584 +1 x595 -1 x72 -1 x329 >= 0 ;
+1 x411 +1 x422 +1 x433 +1 x444 +1 x455 +1 x466 +1 x477 +1 x488 +1 x499 +1 x510 +1 x521 +1 x526 +1 x532 +1 x537 +1 x543 +1 x548 +1 x554 +1 x559 +1 x565 +1 x570 +1 x576 +1 x581 +1 x587 +1 x592 +1 x598 -1 x73 -1 x328 >= 0 ;
+1 x411 +1 x416 +1 x422 +1 x427 +1 x438 +1 x449 +1 x454 +1 x465 +1 x476 +1 x481 +1 x487 +1 x492 +1 x503 +1 x514 +1 x519 +1 x530 +1 x541 +1 x546 +1 x552 +1 x557 +1 x568 +1 x579 +1 x584 +1 x590 +1 x595 -1 x74 -1 x327 >= 0 ;
+1 x411 +1 x416 +1 x427 +1 x432 +1 x443 +1 x448 +1 x459 +1 x464 +1 x475 +1 x480 +1 x491 +1 x496 +1 x507 +1 x512 +1 x523 +1 x528 +1 x534 +1 x539 +1 x550 +1 x555 +1 x566 +1 x571 +1 x582 +1 x587 +1 x598 -1 x75 -1 x326 >= 0 ;
+1 x405 +1 x416 +1 x421 +1 x437 +1 x442 +1 x453 +1 x458 +1 x463 +1 x474 +1 x479 +1 x490 +1 x495 +1 x500 +1 x511 +1 x516 +1 x532 +1 x537 +1 x548 +1 x553 +1 x558 +1 x569 +1 x574 +1 x585 +1 x590 +1 x595 -1 x76 -1 x325 >= 0 ;
+1 x405 +1 x421 +1 x426 +1 x431 +1 x447 +1 x452 +1 x457 +1 x468 +1 x473 +1 x478 +1 x483 +1 x494 +1 x499 +1 x504 +1 x520 +1 x525 +1 x530 +1 x546 +1 x551 +1 x556 +1 x572 +1 x577 +1 x582 +1 x593 +1 x598 -1 x77 -1 x324 >= 0 ;
+1 x405 +1 x410 +1 x426 +1 x431 +1 x436 +1 x441 +1 x446 +1 x462 +1 x467 +1 x472 +1 x477 +1 x482 +1 x498 +1 x503 +1 x508 +1 x513 +1 x518 +1 x539 +1 x544 +1 x549 +1 x554 +1 x575 +1 x580 +1 x585 +1 x590 -1 x78 -1 x323 >= 0 ;
+1 x405 +1 x410 +1 x415 +1 x420 +1 x446 +1 x451 +1 x456 +1 x461 +1 x466 +1 x471 +1 x476 +1 x481 +1 x486 +1 x517 +1 x522 +1 x527 +1 x532 +1 x537 +1 x542 +1 x547 +1 x552 +1 x583 +1 x588 +1 x593 +1 x598 -1 x79 -1 x322 >= 0 ;
+1 x405 +1 x410 +1 x415 +1 x420 +1 x425 +1 x430 +1 x435 +1 x440 +1 x445 +1 x450 +1 x455 +1 x460 +1 x465 +1 x470 +1 x475 +1 x480 +1 x485 +1 x490 +1 x495 +1 x500 +1 x505 +1 x510 +1 x515 +1 x520 +1 x525 -1 x80 -1 x321 >= 0 ;
+1 x405 +1 x410 +1 x415 +1 x420 +1 x425 +1 x430 +1 x469 +1 x474 +1 x479 +1 x484 +1 x489 +1 x494 +1 x499 +1 x504 +1 x509 +1 x514 +1 x519 +1 x524 +1 x529 +1 x573 +1 x578 +1 x583 +1 x588 +1 x593 +1 x598 -1 x81 -1 x320 >= 0 ;
+1 x405 +1 x410 +1 x434 +1 x439 +1 x444 +1 x449 +1 x454 +1 x478 +1 x483 +1 x488 +1 x493 +1 x498 +1 x503 +1 x522 +1 x527 +1 x532 +1 x537 +1 x542 +1 x547 +1 x566 +1 x571 +1 x576 +1 x581 +1 x586 +1 x591 -1 x82 -1 x319 >= 0 ;
+1 x405 +1 x424 +1 x429 +1 x434 +1 x453 +1 x458 +1 x463 +1 x477 +1 x482 +1 x487 +1 x492 +1 x506 +1 x511 +1 x516 +1 x521 +1 x535 +1 x540 +1 x545 +1 x550 +1 x564 +1 x569 +1 x574 +1 x579 +1 x593 +1 x598 -1 x83 -1 x318 >= 0 ;
+1 x405 +1 x419 +1 x424 +1 x438 +1 x443 +1 x448 +1 x457 +1 x462 +1 x467 +1 x481 +1 x486 +1 x491 +1 x500 +1 x505 +1 x510 +1 x524 +1 x529 +1 x543 +1 x548 +1 x553 +1 x567 +1 x572 +1 x586 +1 x591 +1 x596 -1 x84 -1 x317 >= 0 ;
+1 x405 +1 x414 +1 x419 +1 x433 +1 x438 +1 x447 +1 x452 +1 x466 +1 x471 +1 x480 +1 x485 +1 x499 +1 x504 +1 x513 +1 x518 +1 x532 +1 x537 +1 x546 +1 x551 +1 x565 +1 x570 +1 x579 +1 x584 +1 x589 +1 x598 -1 x85 -1 x316 >= 0 ;
+1 x414 +1 x428 +1 x442 +1 x451 +1 x456 +1 x465 +1 x470 +1 x479 +1 x484 +1 x493 +1 x498 +1 x507 +1 x512 +1 x521 +1 x526 +1 x535 +1 x540 +1 x549 +1 x554 +1 x563 +1 x568 +1 x577 +1 x582 +1 x591 +1 x596 -1 x86 -1 x315 >= 0 ;
+1 x409 +1 x414 +1 x423 +1 x432 +1 x437 +1 x446 +1 x460 +1 x469 +1 x474 +1 x483 +1 x492 +1 x497 +1 x506 +1 x515 +1 x520 +1 x529 +1 x538 +1 x543 +1 x552 +1 x557 +1 x566 +1 x575 +1 x580 +1 x589 +1 x598 -1 x87 -1 x314 >= 0 ;
+1 x409 +1 x418 +1 x423 +1 x432 +1 x441 +1 x450 +1 x459 +1 x464 +1 x473 +1 x482 +1 x491 +1 x500 +1 x505 +1 x514 +1 x523 +1 x532 +1 x541 +1 x546 +1 x555 +1 x564 +1 x573 +1 x578 +1 x582 +1 x587 +1 x596 -1 x88 -1 x313 >= 0 ;
+1 x409 +1 x418 +1 x427 +1 x436 +1 x445 +1 x454 +1 x463 +1 x472 +1 x481 +1 x490 +1 x499 +1 x508 +1 x517 +1 x526 +1 x535 +1 x544 +1 x553 +1 x562 +1 x571 +1 x576 +1 x580 +1 x585 +1 x589 +1 x594 +1 x598 -1 x89 -1 x312 >= 0 ;
+1 x409 +1 x418 +1 x422 +1 x427 +1 x431 +1 x440 +1 x449 +1 x458 +1 x467 +1 x476 +1 x480 +1 x489 +1 x498 +1 x507 +1 x516 +1 x525 +1 x529 +1 x538 +1 x547 +1 x556 +1 x565 +1 x574 +1 x578 +1 x587 +1 x596 -1 x90 -1 x311 >= 0 ;
+1 x409 +1 x413 +1 x422 +1 x431 +1 x435 +1 x444 +1 x453 +1 x466 +1 x475 +1 x484 +1 x488 +1 x497 +1 x506 +1 x510 +1 x519 +1 x528 +1 x532 +1 x541 +1 x550 +1 x554 +1 x563 +1 x572 +1 x576 +1 x585 +1 x594 -1 x91 -1 x310 >= 0 ;
+1 x413 +1 x422 +1 x426 +1 x435 +1 x439 +1 x448 +1 x461 +1 x470 +1 x474 +1 x483 +1 x487 +1 x496 +1 x500 +1 x509 +1 x522 +1 x531 +1 x535 +1 x544 +1 x548 +1 x557 +1 x561 +1 x570 +1 x583 +1 x592 +1 x596 -1 x92 -1 x309 >= 0 ;
+1 x413 +1 x417 +1 x426 +1 x430 +1 x439 +1 x443 +1 x452 +1 x456 +1 x469 +1 x482 +1 x486 +1 x495 +1 x499 +1 x508 +1 x512 +1 x521 +1 x525 +1 x538 +1 x551 +1 x555 +1 x564 +1 x568 +1 x577 +1 x581 +1 x594 -1 x93 -1 x308 >= 0 ;
+1 x404 +1 x413 +1 x417 +1 x430 +1 x434 +1 x447 +1 x451 +1 x464 +1 x468 +1 x477 +1 x481 +1 x494 +1 x498 +1 x511 +1 x515 +1 x528 +1 x532 +1 x541 +1 x545 +1 x558 +1 x562 +1 x575 +1 x579 +1 x592 +1 x596 -1 x94 -1 x307 >= 0 ;
+1 x404 +1 x417 +1 x421 +1 x434 +1 x438 +1 x442 +1 x455 +1 x459 +1 x472 +1 x476 +1 x480 +1 x493 +1 x497 +1 x510 +1 x514 +1 x518 +1 x531 +1 x535 +1 x548 +1 x552 +1 x556 +1 x569 +1 x573 +1 x590 +1 x594 -1 x95 -1 x306 >= 0 ;
+1 x404 +1 x421 +1 x425 +1 x429 +1 x442 +1 x446 +1 x450 +1 x467 +1 x471 +1 x475 +1 x492 +1 x496 +1 x500 +1 x513 +1 x517 +1 x521 +1 x538 +1 x542 +1 x546 +1 x563 +1 x567 +1 x571 +1 x584 +1 x588 +1 x592 -1 x96 -1 x305 >= 0 ;
+1 x404 +1 x425 +1 x429 +1 x433 +1 x437 +1 x454 +1 x458 +1 x462 +1 x466 +1 x487 +1 x491 +1 x495 +1 x499 +1 x516 +1 x520 +1 x524 +1 x528 +1 x549 +1 x553 +1 x557 +1 x561 +1 x578 +1 x582 +1 x586 +1 x590 -1 x97 -1 x304 >= 0 ;
+1 x404 +1 x408 +1 x437 +1 x441 +1 x445 +1 x449 +1 x453 +1 x478 +1 x482 +1 x486 +1 x490 +1 x494 +1 x498 +1 x523 +1 x527 +1 x531 +1 x535 +1 x539 +1 x543 +1 x568 +1 x572 +1 x576 +1 x580 +1 x584 +1 x588 -1 x98 -1 x303 >= 0 ;
+1 x404 +1 x408 +1 x412 +1 x416 +1 x420 +1 x461 +1 x465 +1 x469 +1 x473 +1 x477 +1 x481 +1 x485 +1 x489 +1 x493 +1 x497 +1 x542 +1 x546 +1 x550 +1 x554 +1 x558 +1 x562 +1 x566 +1 x570 +1 x574 +1 x578 -1 x99 -1 x302 >= 0 ;
+1 x404 +1 x408 +1 x412 +1 x416 +1 x420 +1 x424 +1 x428 +1 x432 +1 x436 +1 x440 +1 x444 +1 x448 +1 x452 +1 x456 +1 x460 +1 x464 +1 x468 +1 x472 +1 x476 +1 x480 +1 x484 +1 x488 +1 x492 +1 x496 +1 x500 -1 x100 -1 x301 >= 0 ;
+1 x404 +1 x408 +1 x412 +1 x416 +1 x420 +1 x424 +1 x428 +1 x432 +1 x503 +1 x507 +1 x511 +1 x515 +1 x519 +1 x523 +1 x527 +1 x531 +1 x535 +1 x539 +1 x543 +1 x547 +1 x551 +1 x555 +1 x559 +1 x563 +1 x567 -1 x101 -1 x300 >= 0 ;
+1 x404 +1 x408 +1 x412 +1 x443 +1 x447 +1 x451 +1 x455 +1 x459 +1 x463 +1 x467 +1 x471 +1 x502 +1 x506 +1 x510 +1 x514 +1 x518 +1 x522 +1 x526 +1 x561 +1 x565 +1 x569 +1 x573 +1 x577 +1 x581 +1 x585 -1 x102 -1 x299 >= 0 ;
+1 x404 +1 x408 +1 x431 +1 x435 +1 x439 +1 x443 +1 x466 +1 x470 +1 x474 +1 x478 +1 x482 +1 x501 +1 x505 +1 x509 +1 x513 +1 x517 +1 x540 +1 x544 +1 x548 +1 x552 +1 x575 +1 x579 +1 x583 +1 x587 +1 x591 -1 x103 -1 x298 >= 0 ;
+1 x404 +1 x423 +1 x427 +1 x431 +1 x450 +1 x454 +1 x458 +1 x477 +1 x481 +1 x485 +1 x504 +1 x508 +1 x512 +1 x527 +1 x531 +1 x535 +1 x539 +1 x554 +1 x558 +1 x562 +1 x566 +1 x581 +1 x585 +1 x589 +1 x593 -1 x104 -1 x297 >= 0 ;
+1 x404 +1 x419 +1 x423 +1 x438 +1 x442 +1 x446 +1 x461 +1 x465 +1 x480 +1 x484 +1 x488 +1 x503 +1 x507 +1 x522 +1 x526 +1 x530 +1 x545 +1 x549 +1 x553 +1 x564 +1 x568 +1 x572 +1 x587 +1 x591 +1 x595 -1 x105 -1 x296 >= 0 ;
+1 x404 +1 x415 +1 x419 +1 x434 +1 x438 +1 x449 +1 x453 +1 x468 +1 x472 +1 x483 +1 x487 +1 x491 +1 x502 +1 x506 +1 x521 +1 x525 +1 x536 +1 x540 +1 x555 +1 x559 +1 x570 +1 x574 +1 x578 +1 x589 +1 x593 -1 x106 -1 x295 >= 0 ;
+1 x415 +1 x426 +1 x430 +1 x441 +1 x445 +1 x456 +1 x460 +1 x471 +1 x475 +1 x486 +1 x490 +1 x501 +1 x505 +1 x516 +1 x520 +1 x531 +1 x535 +1 x546 +1 x550 +1 x561 +1 x565 +1 x576 +1 x580 +1 x591 +1 x595 -1 x107 -1 x294 >= 0 ;
+1 x411 +1 x415 +1 x426 +1 x437 +1 x441 +1 x452 +1 x463 +1 x467 +1 x478 +1 x489 +1 x493 +1 x504 +1 x515 +1 x519 +1 x530 +1 x541 +1 x545 +1 x552 +1 x556 +1 x567 +1 x571 +1 x578 +1 x582 +1 x593 +1 x597 -1 x108 -1 x293 >= 0 ;
+1 x411 +1 x422 +1 x433 +1 x437 +1 x444 +1 x448 +1 x455 +1 x459 +1 x466 +1 x470 +1 x481 +1 x492 +1 x503 +1 x514 +1 x525 +1 x536 +1 x540 +1 x547 +1 x551 +1 x558 +1 x562 +1 x569 +1 x573 +1 x584 +1 x595 -1 x109 -1 x292 >= 0 ;
+1 x411 +1 x418 +1 x422 +1 x429 +1 x433 +1 x440 +1 x451 +1 x462 +1 x473 +1 x480 +1 x484 +1 x491 +1 x495 +1 x502 +1 x513 +1 x524 +1 x535 +1 x542 +1 x546 +1 x553 +1 x564 +1 x575 +1 x586 +1 x593 +1 x597 -1 x110 -1 x291 >= 0 ;
+1 x407 +1 x411 +1 x418 +1 x429 +1 x436 +1 x447 +1 x454 +1 x458 +1 x465 +1 x476 +1 x483 +1 x494 +1 x501 +1 x512 +1 x519 +1 x523 +1 x530 +1 x541 +1 x548 +1 x559 +1 x566 +1 x570 +1 x577 +1 x588 +1 x595 -1 x111 -1 x290 >= 0 ;
+1 x407 +1 x418 +1 x425 +1 x432 +1 x436 +1 x443 +1 x450 +1 x461 +1 x468 +1 x475 +1 x486 +1 x493 +1 x504 +1 x511 +1 x518 +1 x529 +1 x536 +1 x543 +1 x547 +1 x554 +1 x561 +1 x572 +1 x579 +1 x586 +1 x597 -1 x112 -1 x289 >= 0 ;
+1 x407 +1 x414 +1 x425 +1 x432 +1 x439 +1 x446 +1 x457 +1 x464 +1 x471 +1 x478 +1 x485 +1 x496 +1 x503 +1 x510 +1 x517 +1 x524 +1 x535 +1 x542 +1 x549 +1 x556 +1 x567 +1 x574 +1 x581 +1 x588 +1 x595 -1 x113 -1 x288 >= 0 ;
+1 x407 +1 x414 +1 x421 +1 x428 +1 x435 +1 x442 +1 x460 +1 x467 +1 x474 +1 x481 +1 x488 +1 x495 +1 x502 +1 x509 +1 x516 +1 x523 +1 x530 +1 x537 +1 x544 +1 x562 +1 x569 +1 x576 +1 x583 +1 x590 +1 x597 -1 x114 -1 x287 >= 0 ;
+1 x407 +1 x414 +1 x421 +1 x428 +1 x435 +1 x442 +1 x449 +1 x456 +1 x480 +1 x487 +1 x494 +1 x501 +1 x508 +1 x515 +1 x522 +1 x529 +1 x536 +1 x543 +1 x550 +1 x557 +1 x564 +1 x571 +1 x578 +1 x585 +1 x592 -1 x115 -1 x286 >= 0 ;
+1 x407 +1 x414 +1 x424 +1 x431 +1 x438 +1 x445 +1 x452 +1 x469 +1 x476 +1 x483 +1 x490 +1 x497 +1 x507 +1 x514 +1 x521 +1 x528 +1 x535 +1 x545 +1 x552 +1 x559 +1 x566 +1 x573 +1 x583 +1 x590 +1 x597 -1 x116 -1 x285 >= 0 ;
+1 x407 +1 x417 +1 x424 +1 x431 +1 x441 +1 x448 +1 x455 +1 x465 +1 x472 +1 x479 +1 x489 +1 x496 +1 x503 +1 x513 +1 x520 +1 x527 +1 x537 +1 x544 +1 x551 +1 x561 +1 x568 +1 x575 +1 x585 +1 x592 +1 x599 -1 x117 -1 x284 >= 0 ;
+1 x407 +1 x410 +1 x417 +1 x424 +1 x427 +1 x434 +1 x444 +1 x451 +1 x461 +1 x468 +1 x478 +1 x485 +1 x495 +1 x502 +1 x512 +1 x519 +1 x529 +1 x536 +1 x546 +1 x553 +1 x563 +1 x570 +1 x580 +1 x587 +1 x597 -1 x118 -1 x283 >= 0 ;
+1 x410 +1 x417 +1 x427 +1 x437 +1 x444 +1 x447 +1 x454 +1 x464 +1 x474 +1 x481 +1 x491 +1 x501 +1 x508 +1 x511 +1 x518 +1 x528 +1 x535 +1 x538 +1 x545 +1 x555 +1 x565 +1 x572 +1 x582 +1 x592 +1 x599 -1 x119 -1 x282 >= 0 ;
+1 x410 +1 x420 +1 x430 +1 x440 +1 x450 +1 x457 +1 x460 +1 x467 +1 x470 +1 x477 +1 x480 +1 x487 +1 x497 +1 x507 +1 x517 +1 x527 +1 x537 +1 x547 +1 x557 +1 x567 +1 x577 +1 x584 +1 x587 +1 x594 +1 x597 -1 x120 -1 x281 >= 0 ;
+1 x410 +1 x420 +1 x423 +1 x430 +1 x433 +1 x443 +1 x453 +1 x463 +1 x473 +1 x483 +1 x486 +1 x493 +1 x496 +1 x506 +1 x516 +1 x526 +1 x536 +1 x539 +1 x546 +1 x549 +1 x559 +1 x569 +1 x579 +1 x589 +1 x599 -1 x121 -1 x280 >= 0 ;
+1 x410 +1 x413 +1 x423 +1 x433 +1 x436 +1 x446 +1 x456 +1 x459 +1 x469 +1 x479 +1 x482 +1 x492 +1 x502 +1 x505 +1 x515 +1 x525 +1 x528 +1 x538 +1 x548 +1 x551 +1 x561 +1 x571 +1 x574 +1 x584 +1 x594 -1 x122 -1 x279 >= 0 ;
+1 x413 +1 x423 +1 x426 +1 x436 +1 x439 +1 x449 +1 x452 +1 x462 +1 x465 +1 x475 +1 x488 +1 x498 +1 x501 +1 x511 +1 x514 +1 x524 +1 x527 +1 x537 +1 x540 +1 x550 +1 x563 +1 x576 +1 x586 +1 x589 +1 x599 -1 x123 -1 x278 >= 0 ;
+1 x413 +1 x416 +1 x426 +1 x429 +1 x439 +1 x442 +1 x455 +1 x468 +1 x471 +1 x481 +1 x484 +1 x497 +1 x510 +1 x513 +1 x523 +1 x526 +1 x536 +1 x539 +1 x552 +1 x565 +1 x568 +1 x578 +1 x581 +1 x591 +1 x594 -1 x124 -1 x277 >= 0 ;
+1 x413 +1 x416 +1 x429 +1 x432 +1 x445 +1 x448 +1 x461 +1 x464 +1 x477 +1 x480 +1 x490 +1 x493 +1 x506 +1 x509 +1 x522 +1 x525 +1 x538 +1 x541 +1 x554 +1 x557 +1 x567 +1 x570 +1 x583 +1 x586 +1 x599 -1 x125 -1 x276 >= 0 ;
+1 x403 +1 x416 +1 x419 +1 x432 +1 x435 +1 x438 +1 x451 +1 x454 +1 x467 +1 x470 +1 x473 +1 x486 +1 x489 +1 x502 +1 x505 +1 x521 +1 x524 +1 x537 +1 x540 +1 x556 +1 x559 +1 x572 +1 x575 +1 x591 +1 x594 -1 x126 -1 x275 >= 0 ;
+1 x403 +1 x419 +1 x422 +1 x438 +1 x441 +1 x457 +1 x460 +1 x463 +1 x479 +1 x482 +1 x498 +1 x501 +1 x504 +1 x517 +1 x520 +1 x523 +1 x539 +1 x542 +1 x558 +1 x561 +1 x564 +1 x577 +1 x580 +1 x583 +1 x599 -1 x127 -1 x274 >= 0 ;
+1 x403 +1 x422 +1 x425 +1 x428 +1 x444 +1 x447 +1 x450 +1 x469 +1 x472 +1 x475 +1 x491 +1 x494 +1 x497 +1 x516 +1 x519 +1 x522 +1 x538 +1 x541 +1 x544 +1 x563 +1 x566 +1 x569 +1 x585 +1 x588 +1 x591 -1 x128 -1 x273 >= 0 ;
+1 x403 +1 x425 +1 x428 +1 x431 +1 x434 +1 x453 +1 x456 +1 x459 +1 x462 +1 x481 +1 x484 +1 x487 +1 x490 +1 x512 +1 x515 +1 x518 +1 x540 +1 x543 +1 x546 +1 x568 +1 x571 +1 x574 +1 x577 +1 x596 +1 x599 -1 x129 -1 x272 >= 0 ;
+1 x403 +1 x406 +1 x431 +1 x434 +1 x437 +1 x440 +1 x443 +1 x468 +1 x471 +1 x474 +1 x477 +1 x505 +1 x508 +1 x511 +1 x514 +1 x539 +1 x542 +1 x545 +1 x548 +1 x551 +1 x576 +1 x579 +1 x582 +1 x585 +1 x588 -1 x130 -1 x271 >= 0 ;
+1 x403 +1 x406 +1 x409 +1 x443 +1 x446 +1 x449 +1 x452 +1 x455 +1 x458 +1 x492 +1 x495 +1 x498 +1 x501 +1 x504 +1 x507 +1 x541 +1 x544 +1 x547 +1 x550 +1 x553 +1 x556 +1 x559 +1 x593 +1 x596 +1 x599 -1 x131 -1 x270 >= 0 ;
+1 x403 +1 x406 +1 x409 +1 x412 +1 x415 +1 x467 +1 x470 +1 x473 +1 x476 +1 x479 +1 x482 +1 x485 +1 x488 +1 x491 +1 x494 +1 x546 +1 x549 +1 x552 +1 x555 +1 x558 +1 x561 +1 x564 +1 x567 +1 x570 +1 x573 -1 x132 -1 x269 >= 0 ;
+1 x403 +1 x406 +1 x409 +1 x412 +1 x415 +1 x418 +1 x421 +1 x424 +1 x427 +1 x430 +1 x433 +1 x436 +1 x563 +1 x566 +1 x569 +1 x572 +1 x575 +1 x578 +1 x581 +1 x584 +1 x587 +1 x590 +1 x593 +1 x596 +1 x599 -1 x133 -1 x268 >= 0 ;
+1 x403 +1 x406 +1 x409 +1 x412 +1 x415 +1 x418 +1 x421 +1 x424 +1 x427 +1 x430 +1 x433 +1 x436 +1 x439 +1 x442 +1 x445 +1 x448 +1 x451 +1 x454 +1 x457 +1 x460 +1 x463 +1 x466 +1 x469 +1 x472 +1 x475 -1 x134 -1 x267 >= 0 ;
+1 x403 +1 x406 +1 x409 +1 x412 +1 x415 +1 x418 +1 x483 +1 x486 +1 x489 +1 x492 +1 x495 +1 x498 +1 x501 +1 x504 +1 x507 +1 x510 +1 x513 +1 x516 +1 x519 +1 x584 +1 x587 +1 x590 +1 x593 +1 x596 +1 x599 -1 x135 -1 x266 >= 0 ;
+1 x403 +1 x406 +1 x409 +1 x447 +1 x450 +1 x453 +1 x456 +1 x459 +1 x462 +1 x465 +1 x468 +1 x506 +1 x509 +1 x512 +1 x515 +1 x518 +1 x521 +1 x524 +1 x562 +1 x565 +1 x568 +1 x571 +1 x574 +1 x577 +1 x580 -1 x136 -1 x265 >= 0 ;
+1 x403 +1 x406 +1 x435 +1 x438 +1 x441 +1 x444 +1 x447 +1 x473 +1 x476 +1 x479 +1 x482 +1 x485 +1 x514 +1 x517 +1 x520 +1 x523 +1 x526 +1 x555 +1 x558 +1 x561 +1 x564 +1 x567 +1 x593 +1 x596 +1 x599 -1 x137 -1 x264 >= 0 ;
+1 x403 +1 x426 +1 x429 +1 x432 +1 x435 +1 x458 +1 x461 +1 x464 +1 x467 +1 x487 +1 x490 +1 x493 +1 x496 +1 x519 +1 x522 +1 x525 +1 x528 +1 x551 +1 x554 +1 x557 +1 x560 +1 x580 +1 x583 +1 x586 +1 x589 -1 x138 -1 x263 >= 0 ;
+1 x403 +1 x423 +1 x426 +1 x429 +1 x446 +1 x449 +1 x452 +1 x472 +1 x475 +1 x478 +1 x498 +1 x501 +1 x504 +1 x521 +1 x524 +1 x527 +1 x530 +1 x547 +1 x550 +1 x553 +1 x573 +1 x576 +1 x579 +1 x596 +1 x599 -1 x139 -1 x262 >= 0 ;
+1 x403 +1 x420 +1 x423 +1 x440 +1 x443 +1 x446 +1 x460 +1 x463 +1 x466 +1 x483 +1 x486 +1 x503 +1 x506 +1 x509 +1 x523 +1 x526 +1 x529 +1 x546 +1 x549 +1 x566 +1 x569 +1 x572 +1 x586 +1 x589 +1 x592 -1 x140 -1 x261 >= 0 ;
+1 x403 +1 x417 +1 x420 +1 x434 +1 x437 +1 x454 +1 x457 +1 x471 +1 x474 +1 x488 +1 x491 +1 x494 +1 x508 +1 x511 +1 x525 +1 x528 +1 x531 +1 x545 +1 x548 +1 x562 +1 x565 +1 x579 +1 x582 +1 x585 +1 x599 -1 x141 -1 x260 >= 0 ;
+1 x403 +1 x414 +1 x417 +1 x431 +1 x434 +1 x448 +1 x451 +1 x462 +1 x465 +1 x479 +1 x482 +1 x496 +1 x499 +1 x510 +1 x513 +1 x527 +1 x530 +1 x544 +1 x547 +1 x558 +1 x561 +1 x575 +1 x578 +1 x592 +1 x595 -1 x142 -1 x259 >= 0 ;
+1 x414 +1 x417 +1 x428 +1 x431 +1 x442 +1 x445 +1 x456 +1 x459 +1 x470 +1 x473 +1 x484 +1 x487 +1 x498 +1 x501 +1 x512 +1 x515 +1 x529 +1 x543 +1 x557 +1 x560 +1 x571 +1 x574 +1 x585 +1 x588 +1 x599 -1 x143 -1 x258 >= 0 ;
+1 x411 +1 x414 +1 x425 +1 x428 +1 x439 +1 x450 +1 x453 +1 x464 +1 x467 +1 x478 +1 x489 +1 x492 +1 x503 +1 x514 +1 x517 +1 x528 +1 x531 +1 x542 +1 x553 +1 x556 +1 x567 +1 x570 +1 x581 +1 x592 +1 x595 -1 x144 -1 x257 >= 0 ;
+1 x411 +1 x414 +1 x422 +1 x425 +1 x436 +1 x447 +1 x458 +1 x461 +1 x469 +1 x472 +1 x483 +1 x494 +1 x505 +1 x508 +1 x516 +1 x519 +1 x530 +1 x541 +1 x552 +1 x555 +1 x563 +1 x566 +1 x577 +1 x588 +1 x599 -1 x145 -1 x256 >= 0 ;
+1 x411 +1 x422 +1 x433 +1 x444 +1 x455 +1 x463 +1 x466 +1 x474 +1 x477 +1 x485 +1 x488 +1 x496 +1 x499 +1 x507 +1 x510 +1 x518 +1 x521 +1 x529 +1 x532 +1 x540 +1 x551 +1 x562 +1 x573 +1 x584 +1 x595 -1 x146 -1 x255 >= 0 ;
+1 x411 +1 x419 +1 x430 +1 x441 +1 x449 +1 x452 +1 x460 +1 x471 +1 x479 +1 x482 +1 x490 +1 x501 +1 x509 +1 x512 +1 x520 +1 x531 +1 x539 +1 x542 +1 x550 +1 x561 +1 x569 +1 x572 +1 x580 +1 x591 +1 x599 -1 x147 -1 x254 >= 0 ;
+1 x408 +1 x411 +1 x419 +1 x427 +1 x438 +1 x446 +1 x457 +1 x465 +1 x473 +1 x476 +1 x484 +1 x492 +1 x495 +1 x503 +1 x511 +1 x522 +1 x530 +1 x541 +1 x549 +1 x557 +1 x560 +1 x568 +1 x576 +1 x587 +1 x595 -1 x148 -1 x253 >= 0 ;
+1 x408 +1 x416 +1 x419 +1 x427 +1 x435 +1 x443 +1 x451 +1 x462 +1 x470 +1 x478 +1 x486 +1 x497 +1 x505 +1 x513 +1 x521 +1 x532 +1 x540 +1 x548 +1 x556 +1 x564 +1 x567 +1 x575 +1 x583 +1 x591 +1 x599 -1 x149 -1 x252 >= 0 ;
+1 x408 +1 x416 +1 x424 +1 x432 +1 x440 +1 x448 +1 x456 +1 x464 +1 x467 +1 x475 +1 x483 +1 x491 +1 x499 +1 x507 +1 x515 +1 x523 +1 x531 +1 x539 +1 x547 +1 x555 +1 x563 +1 x571 +1 x579 +1 x587 +1 x595 -1 x150 -1 x251 >= 0 ;
+1 x408 +1 x416 +1 x424 +1 x432 +1 x440 +1 x445 +1 x453 +1 x461 +1 x469 +1 x477 +1 x485 +1 x493 +1 x501 +1 x509 +1 x517 +1 x522 +1 x530 +1 x538 +1 x546 +1 x554 +1 x562 +1 x570 +1 x578 +1 x586 +1 x594 -1 x151 -1 x250 >= 0 ;
+1 x408 +1 x421 +1 x429 +1 x437 +1 x445 +1 x450 +1 x458 +1 x466 +1 x474 +1 x479 +1 x487 +1 x495 +1 x503 +1 x508 +1 x516 +1 x524 +1 x532 +1 x545 +1 x553 +1 x561 +1 x569 +1 x574 +1 x582 +1 x590 +1 x598 -1 x152 -1 x249 >= 0 ;
+1 x408 +1 x413 +1 x421 +1 x434 +1 x442 +1 x455 +1 x463 +1 x468 +1 x476 +1 x484 +1 x489 +1 x497 +1 x505 +1 x510 +1 x518 +1 x531 +1 x539 +1 x544 +1 x552 +1 x560 +1 x565 +1 x573 +1 x581 +1 x586 +1 x594 -1 x153 -1 x248 >= 0 ;
+1 x413 +1 x426 +1 x434 +1 x439 +1 x447 +1 x452 +1 x460 +1 x465 +1 x473 +1 x478 +1 x486 +1 x491 +1 x499 +1 x504 +1 x512 +1 x525 +1 x538 +1 x551 +1 x559 +1 x564 +1 x572 +1 x577 +1 x585 +1 x590 +1 x598 -1 x154 -1 x247 >= 0 ;
+1 x413 +1 x418 +1 x426 +1 x431 +1 x444 +1 x449 +1 x457 +1 x462 +1 x470 +1 x475 +1 x488 +1 x493 +1 x501 +1 x506 +1 x519 +1 x532 +1 x537 +1 x545 +1 x550 +1 x563 +1 x568 +1 x576 +1 x581 +1 x589 +1 x594 -1 x155 -1 x246 >= 0 ;
+1 x405 +1 x413 +1 x418 +1 x423 +1 x431 +1 x436 +1 x441 +1 x449 +1 x454 +1 x459 +1 x472 +1 x477 +1 x490 +1 x495 +1 x508 +1 x513 +1 x526 +1 x531 +1 x544 +1 x549 +1 x562 +1 x567 +1 x580 +1 x585 +1 x598 -1 x156 -1 x245 >= 0 ;
+1 x405 +1 x418 +1 x423 +1 x428 +1 x441 +1 x446 +1 x451 +1 x464 +1 x469 +1 x474 +1 x487 +1 x492 +1 x497 +1 x515 +1 x520 +1 x525 +1 x538 +1 x543 +1 x548 +1 x561 +1 x566 +1 x571 +1 x584 +1 x589 +1 x594 -1 x157 -1 x244 >= 0 ;
+1 x405 +1 x410 +1 x423 +1 x428 +1 x433 +1 x438 +1 x443 +1 x461 +1 x466 +1 x471 +1 x476 +1 x494 +1 x499 +1 x504 +1 x509 +1 x527 +1 x532 +1 x537 +1 x542 +1 x560 +1 x565 +1 x570 +1 x575 +1 x593 +1 x598 -1 x158 -1 x243 >= 0 ;
+1 x405 +1 x410 +1 x415 +1 x443 +1 x448 +1 x453 +1 x458 +1 x463 +1 x468 +1 x473 +1 x501 +1 x506 +1 x511 +1 x516 +1 x521 +1 x526 +1 x531 +1 x554 +1 x559 +1 x564 +1 x569 +1 x574 +1 x579 +1 x584 +1 x589 -1 x159 -1 x242 >= 0 ;
+1 x405 +1 x410 +1 x415 +1 x420 +1 x425 +1 x430 +1 x435 +1 x440 +1 x445 +1 x450 +1 x455 +1 x460 +1 x538 +1 x543 +1 x548 +1 x553 +1 x558 +1 x563 +1 x568 +1 x573 +1 x578 +1 x583 +1 x588 +1 x593 +1 x598 -1 x160 -1 x241 >= 0 ;
+1 x405 +1 x410 +1 x415 +1 x420 +1 x425 +1 x430 +1 x435 +1 x440 +1 x492 +1 x497 +1 x502 +1 x507 +1 x512 +1 x517 +1 x522 +1 x527 +1 x532 +1 x537 +1 x542 +1 x547 +1 x552 +1 x557 +1 x562 +1 x567 +1 x572 -1 x161 -1 x240 >= 0 ;
+1 x405 +1 x410 +1 x415 +1 x437 +1 x442 +1 x447 +1 x452 +1 x457 +1 x462 +1 x489 +1 x494 +1 x499 +1 x504 +1 x509 +1 x514 +1 x536 +1 x541 +1 x546 +1 x551 +1 x556 +1 x561 +1 x566 +1 x588 +1 x593 +1 x598 -1 x162 -1 x239 >= 0 ;
+1 x405 +1 x422 +1 x427 +1 x432 +1 x437 +1 x454 +1 x459 +1 x464 +1 x469 +1 x486 +1 x491 +1 x496 +1 x501 +1 x518 +1 x523 +1 x528 +1 x533 +1 x545 +1 x550 +1 x555 +1 x560 +1 x577 +1 x582 +1 x587 +1 x592 -1 x163 -1 x238 >= 0 ;
+1 x405 +1 x417 +1 x422 +1 x427 +1 x439 +1 x444 +1 x449 +1 x461 +1 x466 +1 x471 +1 x483 +1 x488 +1 x493 +1 x505 +1 x510 +1 x515 +1 x527 +1 x532 +1 x537 +1 x549 +1 x554 +1 x559 +1 x576 +1 x581 +1 x598 -1 x164 -1 x237 >= 0 ;
+1 x405 +1 x412 +1 x417 +1 x422 +1 x434 +1 x439 +1 x451 +1 x456 +1 x468 +1 x473 +1 x485 +1 x490 +1 x502 +1 x507 +1 x519 +1 x524 +1 x536 +1 x541 +1 x553 +1 x558 +1 x570 +1 x575 +1 x587 +1 x592 +1 x597 -1 x165 -1 x236 >= 0 ;
+1 x412 +1 x417 +1 x429 +1 x441 +1 x446 +1 x453 +1 x458 +1 x470 +1 x475 +1 x482 +1 x487 +1 x499 +1 x504 +1 x511 +1 x516 +1 x528 +1 x533 +1 x540 +1 x545 +1 x557 +1 x562 +1 x569 +1 x574 +1 x586 +1 x598 -1 x166 -1 x235 >= 0 ;
+1 x412 +1 x424 +1 x436 +1 x448 +1 x460 +1 x472 +1 x484 +1 x496 +1 x501 +1 x508 +1 x513 +1 x520 +1 x525 +1 x532 +1 x537 +1 x544 +1 x549 +1 x556 +1 x561 +1 x568 +1 x573 +1 x580 +1 x585 +1 x592 +1 x597 -1 x167 -1 x234 >= 0 ;
+1 x412 +1 x419 +1 x424 +1 x431 +1 x443 +1 x450 +1 x455 +1 x462 +1 x474 +1 x486 +1 x493 +1 x498 +1 x505 +1 x517 +1 x524 +1 x529 +1 x536 +1 x548 +1 x555 +1 x560 +1 x567 +1 x572 +1 x579 +1 x591 +1 x598 -1 x168 -1 x233 >= 0 ;
+1 x407 +1 x412 +1 x419 +1 x426 +1 x438 +1 x445 +1 x457 +1 x464 +1 x476 +1 x483 +1 x495 +1 x502 +1 x509 +1 x514 +1 x521 +1 x528 +1 x533 +1 x540 +1 x547 +1 x552 +1 x559 +1 x566 +1 x578 +1 x585 +1 x597 -1 x169 -1 x232 >= 0 ;
+1 x407 +1 x419 +1 x426 +1 x433 +1 x440 +1 x452 +1 x459 +1 x466 +1 x473 +1 x485 +1 x492 +1 x499 +1 x506 +1 x511 +1 x518 +1 x525 +1 x532 +1 x544 +1 x551 +1 x558 +1 x565 +1 x577 +1 x584 +1 x591 +1 x598 -1 x170 -1 x231 >= 0 ;
+1 x407 +1 x414 +1 x421 +1 x428 +1 x440 +1 x447 +1 x454 +1 x461 +1 x468 +1 x475 +1 x482 +1 x489 +1 x496 +1 x508 +1 x515 +1 x522 +1 x529 +1 x536 +1 x543 +1 x550 +1 x557 +1 x576 +1 x583 +1 x590 +1 x597 -1 x171 -1 x230 >= 0 ;
+1 x407 +1 x414 +1 x421 +1 x428 +1 x435 +1 x442 +1 x449 +1 x456 +1 x463 +1 x470 +1 x477 +1 x484 +1 x491 +1 x498 +1 x505 +1 x512 +1 x519 +1 x526 +1 x533 +1 x540 +1 x547 +1 x554 +1 x561 +1 x568 +1 x575 -1 x172 -1 x229 >= 0 ;
+1 x407 +1 x414 +1 x421 +1 x430 +1 x437 +1 x444 +1 x451 +1 x458 +1 x465 +1 x472 +1 x481 +1 x488 +1 x495 +1 x502 +1 x509 +1 x516 +1 x532 +1 x539 +1 x546 +1 x553 +1 x560 +1 x567 +1 x583 +1 x590 +1 x597 -1 x173 -1 x228 >= 0 ;
+1 x407 +1 x416 +1 x423 +1 x430 +1 x437 +1 x446 +1 x453 +1 x460 +1 x469 +1 x476 +1 x483 +1 x490 +1 x499 +1 x506 +1 x513 +1 x522 +1 x529 +1 x536 +1 x543 +1 x552 +1 x559 +1 x566 +1 x582 +1 x589 +1 x596 -1 x174 -1 x227 >= 0 ;
+1 x407 +1 x416 +1 x423 +1 x432 +1 x439 +1 x448 +1 x455 +1 x462 +1 x471 +1 x478 +1 x487 +1 x494 +1 x503 +1 x510 +1 x517 +1 x526 +1 x533 +1 x542 +1 x549 +1 x558 +1 x565 +1 x572 +1 x581 +1 x588 +1 x597 -1 x175 -1 x226 >= 0 ;
+1 x409 +1 x416 +1 x425 +1 x432 +1 x441 +1 x450 +1 x457 +1 x466 +1 x473 +1 x482 +1 x489 +1 x491 +1 x498 +1 x507 +1 x514 +1 x523 +1 x530 +1 x539 +1 x548 +1 x555 +1 x564 +1 x571 +1 x580 +1 x589 +1 x596 -1 x176 -1 x225 >= 0 ;
+1 x409 +1 x416 +1 x418 +1 x425 +1 x434 +1 x443 +1 x452 +1 x459 +1 x468 +1 x477 +1 x486 +1 x493 +1 x502 +1 x511 +1 x520 +1 x527 +1 x529 +1 x536 +1 x545 +1 x554 +1 x563 +1 x570 +1 x579 +1 x588 +1 x597 -1 x177 -1 x224 >= 0 ;
+1 x409 +1 x418 +1 x427 +1 x436 +1 x445 +1 x454 +1 x463 +1 x472 +1 x481 +1 x488 +1 x490 +1 x497 +1 x499 +1 x506 +1 x508 +1 x515 +1 x524 +1 x533 +1 x542 +1 x551 +1 x560 +1 x569 +1 x578 +1 x587 +1 x596 -1 x178 -1 x223 >= 0 ;
+1 x409 +1 x418 +1 x427 +1 x429 +1 x438 +1 x447 +1 x456 +1 x465 +1 x474 +1 x483 +1 x485 +1 x494 +1 x503 +1 x512 +1 x521 +1 x530 +1 x539 +1 x541 +1 x550 +1 x559 +1 x568 +1 x577 +1 x586 +1 x595 +1 x597 -1 x179 -1 x222 >= 0 ;
+1 x409 +1 x411 +1 x420 +1 x429 +1 x438 +1 x440 +1 x449 +1 x458 +1 x469 +1 x478 +1 x487 +1 x489 +1 x498 +1 x507 +1 x518 +1 x527 +1 x536 +1 x538 +1 x547 +1 x556 +1 x567 +1 x576 +1 x585 +1 x587 +1 x596 -1 x180 -1 x221 >= 0 ;
+1 x409 +1 x411 +1 x420 +1 x431 +1 x440 +1 x442 +1 x451 +1 x462 +1 x471 +1 x473 +1 x482 +1 x493 +1 x502 +1 x504 +1 x513 +1 x524 +1 x533 +1 x544 +1 x553 +1 x555 +1 x564 +1 x575 +1 x584 +1 x586 +1 x595 -1 x181 -1 x220 >= 0 ;
+1 x411 +1 x422 +1 x433 +1 x442 +1 x444 +1 x453 +1 x455 +1 x464 +1 x466 +1 x475 +1 x477 +1 x486 +1 x488 +1 x497 +1 x508 +1 x519 +1 x530 +1 x541 +1 x552 +1 x563 +1 x574 +1 x583 +1 x585 +1 x594 +1 x596 -1 x182 -1 x219 >= 0 ;
+1 x411 +1 x422 +1 x424 +1 x433 +1 x435 +1 x446 +1 x457 +1 x468 +1 x470 +1 x479 +1 x481 +1 x492 +1 x503 +1 x514 +1 x516 +1 x525 +1 x527 +1 x538 +1 x549 +1 x560 +1 x571 +1 x573 +1 x582 +1 x584 +1 x595 -1 x183 -1 x218 >= 0 ;
+1 x411 +1 x413 +1 x424 +1 x435 +1 x437 +1 x448 +1 x450 +1 x461 +1 x472 +1 x474 +1 x485 +1 x496 +1 x498 +1 x509 +1 x520 +1 x522 +1 x533 +1 x535 +1 x546 +1 x557 +1 x559 +1 x570 +1 x581 +1 x583 +1 x594 -1 x184 -1 x217 >= 0 ;
+1 x413 +1 x426 +1 x439 +1 x452 +1 x465 +1 x476 +1 x478 +1 x489 +1 x491 +1 x502 +1 x504 +1 x515 +1 x517 +1 x528 +1 x530 +1 x541 +1 x543 +1 x554 +1 x556 +1 x567 +1 x569 +1 x580 +1 x582 +1 x593 +1 x595 -1 x185 -1 x216 >= 0 ;
+1 x413 +1 x415 +1 x426 +1 x428 +1 x441 +1 x443 +1 x454 +1 x456 +1 x469 +1 x482 +1 x484 +1 x497 +1 x510 +1 x512 +1 x523 +1 x525 +1 x538 +1 x540 +1 x551 +1 x553 +1 x566 +1 x579 +1 x581 +1 x592 +1 x594 -1 x186 -1 x215 >= 0 ;
+1 x413 +1 x415 +1 x428 +1 x430 +1 x443 +1 x445 +1 x458 +1 x460 +1 x473 +1 x475 +1 x488 +1 x490 +1 x503 +1 x505 +1 x518 +1 x520 +1 x533 +1 x535 +1 x548 +1 x550 +1 x563 +1 x565 +1 x578 +1 x580 +1 x593 -1 x187 -1 x214 >= 0 ;
+1 x402 +1 x415 +1 x417 +1 x432 +1 x434 +1 x447 +1 x449 +1 x464 +1 x466 +1 x479 +1 x481 +1 x496 +1 x498 +1 x511 +1 x513 +1 x528 +1 x530 +1 x543 +1 x545 +1 x560 +1 x562 +1 x575 +1 x577 +1 x592 +1 x594 -1 x188 -1 x213 >= 0 ;
+1 x402 +1 x417 +1 x419 +1 x434 +1 x436 +1 x451 +1 x453 +1 x468 +1 x470 +1 x485 +1 x487 +1 x489 +1 x504 +1 x506 +1 x521 +1 x523 +1 x538 +1 x540 +1 x555 +1 x557 +1 x559 +1 x574 +1 x576 +1 x591 +1 x593 -1 x189 -1 x212 >= 0 ;
+1 x402 +1 x417 +1 x419 +1 x421 +1 x436 +1 x438 +1 x440 +1 x455 +1 x457 +1 x459 +1 x474 +1 x476 +1 x478 +1 x495 +1 x497 +1 x514 +1 x516 +1 x533 +1 x535 +1 x552 +1 x554 +1 x571 +1 x573 +1 x590 +1 x592 -1 x190 -1 x211 >= 0 ;
+1 x402 +1 x419 +1 x421 +1 x423 +1 x440 +1 x442 +1 x444 +1 x461 +1 x463 +1 x465 +1 x482 +1 x484 +1 x486 +1 x503 +1 x505 +1 x507 +1 x524 +1 x526 +1 x528 +1 x547 +1 x549 +1 x568 +1 x570 +1 x589 +1 x591 -1 x191 -1 x210 >= 0 ;
+1 x402 +1 x421 +1 x423 +1 x425 +1 x446 +1 x448 +1 x450 +1 x469 +1 x471 +1 x473 +1 x492 +1 x494 +1 x496 +1 x515 +1 x517 +1 x519 +1 x540 +1 x542 +1 x544 +1 x563 +1 x565 +1 x567 +1 x586 +1 x588 +1 x590 -1 x192 -1 x209 >= 0 ;
+1 x402 +1 x425 +1 x427 +1 x429 +1 x452 +1 x454 +1 x456 +1 x477 +1 x479 +1 x481 +1 x483 +1 x504 +1 x506 +1 x508 +1 x510 +1 x531 +1 x533 +1 x535 +1 x537 +1 x558 +1 x560 +1 x562 +1 x585 +1 x587 +1 x589 -1 x193 -1 x208 >= 0 ;
+1 x402 +1 x427 +1 x429 +1 x431 +1 x433 +1 x458 +1 x460 +1 x462 +1 x464 +1 x489 +1 x491 +1 x493 +1 x495 +1 x520 +1 x522 +1 x524 +1 x526 +1 x551 +1 x553 +1 x555 +1 x557 +1 x582 +1 x584 +1 x586 +1 x588 -1 x194 -1 x207 >= 0 ;
+1 x402 +1 x404 +1 x433 +1 x435 +1 x437 +1 x439 +1 x441 +1 x470 +1 x472 +1 x474 +1 x476 +1 x505 +1 x507 +1 x509 +1 x511 +1 x513 +1 x542 +1 x544 +1 x546 +1 x548 +1 x550 +1 x579 +1 x581 +1 x583 +1 x585 -1 x195 -1 x206 >= 0 ;
+1 x402 +1 x404 +1 x439 +1 x441 +1 x443 +1 x445 +1 x447 +1 x449 +1 x484 +1 x486 +1 x488 +1 x490 +1 x492 +1 x494 +1 x529 +1 x531 +1 x533 +1 x535 +1 x537 +1 x539 +1 x574 +1 x576 +1 x578 +1 x580 +1 x582 -1 x196 -1 x205 >= 0 ;
+1 x402 +1 x404 +1 x406 +1 x451 +1 x453 +1 x455 +1 x457 +1 x459 +1 x461 +1 x463 +1 x508 +1 x510 +1 x512 +1 x514 +1 x516 +1 x518 +1 x520 +1 x565 +1 x567 +1 x569 +1 x571 +1 x573 +1 x575 +1 x577 +1 x579 -1 x197 -1 x204 >= 0 ;
+1 x402 +1 x404 +1 x406 +1 x408 +1 x410 +1 x471 +1 x473 +1 x475 +1 x477 +1 x479 +1 x481 +1 x483 +1 x485 +1 x487 +1 x489 +1 x552 +1 x554 +1 x556 +1 x558 +1 x560 +1 x562 +1 x564 +1 x566 +1 x568 +1 x570 -1 x198 -1 x203 >= 0 ;
+1 x402 +1 x404 +1 x406 +1 x408 +1 x410 +1 x412 +1 x414 +1 x416 +1 x517 +1 x519 +1 x521 +1 x523 +1 x525 +1 x527 +1 x529 +1 x531 +1 x533 +1 x535 +1 x537 +1 x539 +1 x541 +1 x543 +1 x545 +1 x547 +1 x549 -1 x199 -1 x202 >= 0 ;
+1 x402 +1 x404 +1 x406 +1 x408 +1 x410 +1 x412 +1 x414 +1 x416 +1 x418 +1 x420 +1 x422 +1 x424 +1 x426 +1 x428 +1 x430 +1 x432 +1 x434 +1 x436 +1 x438 +1 x440 +1 x442 +1 x444 +1 x446 +1 x448 +1 x450 -1 x200 -1 x201 >= 0 ;
